atom_style  peri
units       si

###############################################
# Physical Constants
###############################################

include constant.include
variable c equal 9000000.00000000000000000000000000000000
variable hor equal 1.00000000000000000000000000000000
variable s00 equal 1000000000.00000000000000000000000000000000
variable alpha equal 0.10000000000000000555111512312578
variable dens equal 900.00000000000000000000000000000000
variable waterDensity equal 1017.00000000000000000000000000000000
variable airDensity equal 1.00000000000000000000000000000000
variable gravity equal 9.81000000000000049737991503207013
variable Cdo equal 10.00000000000000000000000000000000
variable Cda equal 10.00000000000000000000000000000000

###############################################
# Geometry-related parameters
###############################################

include simbox.include
boundary f f f
atom_modify map array
variable x0 equal 0.00000000000000000000000000000000
variable x1 equal 50.00000000000000000000000000000000
variable y0 equal 0.00000000000000000000000000000000
variable y1 equal 50.00000000000000000000000000000000
variable z0 equal -20.00000000000000000000000000000000
variable z1 equal 20.00000000000000000000000000000000
region boxreg block ${x0} ${x1} ${y0} ${y1} ${z0} ${z1} units box
region boxreg block 0 ${x1} ${y0} ${y1} ${z0} ${z1} units box
region boxreg block 0 50 ${y0} ${y1} ${z0} ${z1} units box
region boxreg block 0 50 0 ${y1} ${z0} ${z1} units box
region boxreg block 0 50 0 50 ${z0} ${z1} units box
region boxreg block 0 50 0 50 -20 ${z1} units box
region boxreg block 0 50 0 50 -20 20 units box
create_box 1 boxreg
Created orthogonal box = (0 0 -20) to (50 50 20)
  1 by 1 by 1 MPI processor grid

###############################################
# Create atoms
###############################################

include atom.include
lattice sc 1.00000000000000000000000000000000
Lattice spacing in x,y,z = 1 1 1
region slab1 block 0.00000000000000000000000000000000 23.75000000000000000000000000000000 ${y0} ${y1} -0.79100715766305840226380041713128 0.00000000000000000000000000000000 units box
region slab1 block 0.00000000000000000000000000000000 23.75000000000000000000000000000000 0 ${y1} -0.79100715766305840226380041713128 0.00000000000000000000000000000000 units box
region slab1 block 0.00000000000000000000000000000000 23.75000000000000000000000000000000 0 50 -0.79100715766305840226380041713128 0.00000000000000000000000000000000 units box
region slab2 block 26.25000000000000000000000000000000 50.00000000000000000000000000000000 ${y0} ${y1} -0.79100715766305840226380041713128 0.00000000000000000000000000000000 units box
region slab2 block 26.25000000000000000000000000000000 50.00000000000000000000000000000000 0 ${y1} -0.79100715766305840226380041713128 0.00000000000000000000000000000000 units box
region slab2 block 26.25000000000000000000000000000000 50.00000000000000000000000000000000 0 50 -0.79100715766305840226380041713128 0.00000000000000000000000000000000 units box
create_atoms 1 region slab1
Created 1200 atoms
  Time spent = 0.00324607 secs
create_atoms 1 region slab2
Created 1150 atoms
  Time spent = 0.00292206 secs
set atom 1 volume 0.52459342472966463688521798758302
  1 settings made for volume
set atom 1 mass 472.13408225669815010405727662146091
  1 settings made for mass
set atom 2 volume 0.51905970968478776228494098177180
  1 settings made for volume
set atom 2 mass 467.15373871630896474016481079161167
  1 settings made for mass
set atom 3 volume 0.52207876561178290231168830359820
  1 settings made for volume
set atom 3 mass 469.87088905060460319873527623713017
  1 settings made for mass
set atom 4 volume 0.52590530601065332838572885520989
  1 settings made for volume
set atom 4 mass 473.31477540958798044812283478677273
  1 settings made for mass
set atom 5 volume 0.52277166173055289455362526496174
  1 settings made for volume
set atom 5 mass 470.49449555749760065737063996493816
  1 settings made for mass
set atom 6 volume 0.52722902360411905142711930238875
  1 settings made for volume
set atom 6 mass 474.50612124370712763266055844724178
  1 settings made for mass
set atom 7 volume 0.52136364842173543721060013922397
  1 settings made for volume
set atom 7 mass 469.22728357956191302946535870432854
  1 settings made for mass
set atom 8 volume 0.52470172434161765906424079730641
  1 settings made for volume
set atom 8 mass 472.23155190745586651246412657201290
  1 settings made for mass
set atom 9 volume 0.52050933748033856307557698528399
  1 settings made for volume
set atom 9 mass 468.45840373230470277121639810502529
  1 settings made for mass
set atom 10 volume 0.52509372477363447373477356450167
  1 settings made for volume
set atom 10 mass 472.58435229627104945393512025475502
  1 settings made for mass
set atom 11 volume 0.52146846852777828384972735875635
  1 settings made for volume
set atom 11 mass 469.32162167500047189605538733303547
  1 settings made for mass
set atom 12 volume 0.52398044193351467345820537957479
  1 settings made for volume
set atom 12 mass 471.58239774016323053729138337075710
  1 settings made for mass
set atom 13 volume 0.52216178807846946874349214340327
  1 settings made for volume
set atom 13 mass 469.94560927062252631003502756357193
  1 settings made for mass
set atom 14 volume 0.52596820171967439971894009431708
  1 settings made for volume
set atom 14 mass 473.37138154770696019113529473543167
  1 settings made for mass
set atom 15 volume 0.51894727153910424899407871635049
  1 settings made for volume
set atom 15 mass 467.05254438519381210426217876374722
  1 settings made for mass
set atom 16 volume 0.52390875827568172962145354176755
  1 settings made for volume
set atom 16 mass 471.51788244811353933982900343835354
  1 settings made for mass
set atom 17 volume 0.52893420992823558801632088943734
  1 settings made for volume
set atom 17 mass 476.04078893541202432970749214291573
  1 settings made for mass
set atom 18 volume 0.51872426275635841186328889307333
  1 settings made for volume
set atom 18 mass 466.85183648072256801242474466562271
  1 settings made for mass
set atom 19 volume 0.51919837973967886135540084069362
  1 settings made for volume
set atom 19 mass 467.27854176571099742432124912738800
  1 settings made for mass
set atom 20 volume 0.52328486929571293995167025059345
  1 settings made for volume
set atom 20 mass 470.95638236614166771687450818717480
  1 settings made for mass
set atom 21 volume 0.52761152420819734665258238237584
  1 settings made for volume
set atom 21 mass 474.85037178737763952085515484213829
  1 settings made for mass
set atom 22 volume 0.52876888517664522026962004019879
  1 settings made for volume
set atom 22 mass 475.89199665898070179537171497941017
  1 settings made for mass
set atom 23 volume 0.52604618017809368080150989044341
  1 settings made for volume
set atom 23 mass 473.44156216028432027087546885013580
  1 settings made for mass
set atom 24 volume 0.51908370066246911633811578212772
  1 settings made for volume
set atom 24 mass 467.17533059622218161166529171168804
  1 settings made for mass
set atom 25 volume 0.52524214860121798409409166197293
  1 settings made for volume
set atom 25 mass 472.71793374109620344825088977813721
  1 settings made for mass
set atom 26 volume 0.52643631231040921569785950850928
  1 settings made for volume
set atom 26 mass 473.79268107936832166160456836223602
  1 settings made for mass
set atom 27 volume 0.52748498897635720528143110641395
  1 settings made for volume
set atom 27 mass 474.73649007872148786191246472299099
  1 settings made for mass
set atom 28 volume 0.52566413886703999835958711628336
  1 settings made for volume
set atom 28 mass 473.09772498033601095812628045678139
  1 settings made for mass
set atom 29 volume 0.52734247715974591486087774683256
  1 settings made for volume
set atom 29 mass 474.60822944377133580928784795105457
  1 settings made for mass
set atom 30 volume 0.52719425278116005539885691177915
  1 settings made for volume
set atom 30 mass 474.47482750304402543406467884778976
  1 settings made for mass
set atom 31 volume 0.51999911311626578758193772955565
  1 settings made for volume
set atom 31 mass 467.99920180463919905378133989870548
  1 settings made for mass
set atom 32 volume 0.52323812134832448084154066236806
  1 settings made for volume
set atom 32 mass 470.91430921349206073500681668519974
  1 settings made for mass
set atom 33 volume 0.52332269855980517725413392327027
  1 settings made for volume
set atom 33 mass 470.99042870382464798240107484161854
  1 settings made for mass
set atom 34 volume 0.52402437888058239767730128733092
  1 settings made for volume
set atom 34 mass 471.62194099252417345269350335001945
  1 settings made for mass
set atom 35 volume 0.52220855530064791416577918425901
  1 settings made for volume
set atom 35 mass 469.98769977058310587381129153072834
  1 settings made for mass
set atom 36 volume 0.51841038909088021924276290519629
  1 settings made for volume
set atom 36 mass 466.56935018179217422584770247340202
  1 settings made for mass
set atom 37 volume 0.52311134143961857123628078625188
  1 settings made for volume
set atom 37 mass 470.80020729565671899763401597738266
  1 settings made for mass
set atom 38 volume 0.52240891795015453880068889702670
  1 settings made for volume
set atom 38 mass 470.16802615513910268418840132653713
  1 settings made for mass
set atom 39 volume 0.51833429564653754617609138222178
  1 settings made for volume
set atom 39 mass 466.50086608188377113037859089672565
  1 settings made for mass
set atom 40 volume 0.52527212651134236320871195857762
  1 settings made for volume
set atom 40 mass 472.74491386020810068657738156616688
  1 settings made for mass
set atom 41 volume 0.52511741566627012645085414987989
  1 settings made for volume
set atom 41 mass 472.60567409964312446390977129340172
  1 settings made for mass
set atom 42 volume 0.52572483627320221177825487757218
  1 settings made for volume
set atom 42 mass 473.15235264588199015634017996490002
  1 settings made for mass
set atom 43 volume 0.52361789352753174142662828671746
  1 settings made for volume
set atom 43 mass 471.25610417477855662582442164421082
  1 settings made for mass
set atom 44 volume 0.52006194371180147761890566471266
  1 settings made for volume
set atom 44 mass 468.05574934062133252155035734176636
  1 settings made for mass
set atom 45 volume 0.52790060336617394831648653052980
  1 settings made for volume
set atom 45 mass 475.11054302955653838580474257469177
  1 settings made for mass
set atom 46 volume 0.51897658206224073218493231252069
  1 settings made for volume
set atom 46 mass 467.07892385601667228911537677049637
  1 settings made for mass
set atom 47 volume 0.52407766209463024775772055363632
  1 settings made for volume
set atom 47 mass 471.66989588516725007139029912650585
  1 settings made for mass
set atom 48 volume 0.52437480582148954244559035942075
  1 settings made for volume
set atom 48 mass 471.93732523934056644066004082560539
  1 settings made for mass
set atom 49 volume 0.52300123706739409801258489096654
  1 settings made for volume
set atom 49 mass 470.70111336065468776723719201982021
  1 settings made for mass
set atom 50 volume 0.52219075599701680889808130814345
  1 settings made for volume
set atom 50 mass 469.97168039731513999868184328079224
  1 settings made for mass
set atom 51 volume 0.52669027003140012066495501130703
  1 settings made for volume
set atom 51 mass 474.02124302826013035883079282939434
  1 settings made for mass
set atom 52 volume 0.52573351046867855540511982326279
  1 settings made for volume
set atom 52 mass 473.16015942181070386141072958707809
  1 settings made for mass
set atom 53 volume 0.51676238508742189381450771179516
  1 settings made for volume
set atom 53 mass 465.08614657867968844584538601338863
  1 settings made for mass
set atom 54 volume 0.53024828992314110287509265617700
  1 settings made for volume
set atom 54 mass 477.22346093082700235754600726068020
  1 settings made for mass
set atom 55 volume 0.52908965804990426562426364398561
  1 settings made for volume
set atom 55 mass 476.18069224491381419284152798354626
  1 settings made for mass
set atom 56 volume 0.52310327093510766705009018551209
  1 settings made for volume
set atom 56 mass 470.79294384159692299363086931407452
  1 settings made for mass
set atom 57 volume 0.52532139368125241318807638890576
  1 settings made for volume
set atom 57 mass 472.78925431312717364562558941543102
  1 settings made for mass
set atom 58 volume 0.52376661276452840532158461428480
  1 settings made for volume
set atom 58 mass 471.38995148807555324310669675469398
  1 settings made for mass
set atom 59 volume 0.51833401148284108383990087531856
  1 settings made for volume
set atom 59 mass 466.50061033455699543992523103952408
  1 settings made for mass
set atom 60 volume 0.52946658356548859103440918261185
  1 settings made for volume
set atom 60 mass 476.51992520893975324725033715367317
  1 settings made for mass
set atom 61 volume 0.51759466615088034480152145988541
  1 settings made for volume
set atom 61 mass 465.83519953579229877504985779523849
  1 settings made for mass
set atom 62 volume 0.52192109775741457600162220842321
  1 settings made for volume
set atom 62 mass 469.72898798167312861551181413233280
  1 settings made for mass
set atom 63 volume 0.52033703398631891978709518298274
  1 settings made for volume
set atom 63 mass 468.30333058768701448570936918258667
  1 settings made for mass
set atom 64 volume 0.52012190735633201388310453694430
  1 settings made for volume
set atom 64 mass 468.10971662069880494527751579880714
  1 settings made for mass
set atom 65 volume 0.52957057742674729095000429879292
  1 settings made for volume
set atom 65 mass 476.61351968407257118087727576494217
  1 settings made for mass
set atom 66 volume 0.52507132425411240372881138682715
  1 settings made for volume
set atom 66 mass 472.56419182870115491823526099324226
  1 settings made for mass
set atom 67 volume 0.52187094343969775422920065466315
  1 settings made for volume
set atom 67 mass 469.68384909572796459542587399482727
  1 settings made for mass
set atom 68 volume 0.52422514884952398084294600266730
  1 settings made for volume
set atom 68 mass 471.80263396457155522512039169669151
  1 settings made for mass
set atom 69 volume 0.52654858320463060472604865935864
  1 settings made for volume
set atom 69 mass 473.89372488416756823426112532615662
  1 settings made for mass
set atom 70 volume 0.52499886351603708423141370076337
  1 settings made for volume
set atom 70 mass 472.49897716443337003511260263621807
  1 settings made for mass
set atom 71 volume 0.52130815561768029109401823006920
  1 settings made for volume
set atom 71 mass 469.17734005591228196863085031509399
  1 settings made for mass
set atom 72 volume 0.52211889653560938917564726580167
  1 settings made for volume
set atom 72 mass 469.90700688204844936990411952137947
  1 settings made for mass
set atom 73 volume 0.52893795473694016351373647921719
  1 settings made for volume
set atom 73 mass 476.04415926324617203135858289897442
  1 settings made for mass
set atom 74 volume 0.52593663314371918993117560603423
  1 settings made for volume
set atom 74 mass 473.34296982934728248437750153243542
  1 settings made for mass
set atom 75 volume 0.53252036767222754587436384099419
  1 settings made for volume
set atom 75 mass 479.26833090500480238915770314633846
  1 settings made for mass
set atom 76 volume 0.52521479083477673466262558577000
  1 settings made for volume
set atom 76 mass 472.69331175129906341680907644331455
  1 settings made for mass
set atom 77 volume 0.52063547501236140391256412840448
  1 settings made for volume
set atom 77 mass 468.57192751112523865231196396052837
  1 settings made for mass
set atom 78 volume 0.52790592746512754462884231543285
  1 settings made for volume
set atom 78 mass 475.11533471861480393272358924150467
  1 settings made for mass
set atom 79 volume 0.51859991620380418986258064251160
  1 settings made for volume
set atom 79 mass 466.73992458342377176450099796056747
  1 settings made for mass
set atom 80 volume 0.52669464159402579195301541403751
  1 settings made for volume
set atom 80 mass 474.02517743462323096537147648632526
  1 settings made for mass
set atom 81 volume 0.52830632231398055864701746031642
  1 settings made for volume
set atom 81 mass 475.47569008258250278231571428477764
  1 settings made for mass
set atom 82 volume 0.52357733790859561917585551782395
  1 settings made for volume
set atom 82 mass 471.21960411773608257135492749512196
  1 settings made for mass
set atom 83 volume 0.52707044829698634913484056596644
  1 settings made for volume
set atom 83 mass 474.36340346728769645778811536729336
  1 settings made for mass
set atom 84 volume 0.52576219785564204389771703063161
  1 settings made for volume
set atom 84 mass 473.18597807007785149835399352014065
  1 settings made for mass
set atom 85 volume 0.51756890835917623849837809757446
  1 settings made for volume
set atom 85 mass 465.81201752325858933545532636344433
  1 settings made for mass
set atom 86 volume 0.52384314728979797237684579158667
  1 settings made for volume
set atom 86 mass 471.45883256081816625737701542675495
  1 settings made for mass
set atom 87 volume 0.52460289305625573685887275132700
  1 settings made for volume
set atom 87 mass 472.14260375063014407714945264160633
  1 settings made for mass
set atom 88 volume 0.52870085215063999939388850179967
  1 settings made for volume
set atom 88 mass 475.83076693557597991457441821694374
  1 settings made for mass
set atom 89 volume 0.52234266539442997245856759036542
  1 settings made for volume
set atom 89 mass 470.10839885498700141397421248257160
  1 settings made for mass
set atom 90 volume 0.52272755576814911027128118803375
  1 settings made for volume
set atom 90 mass 470.45480019133418636556598357856274
  1 settings made for mass
set atom 91 volume 0.52264271410882690016563856261200
  1 settings made for volume
set atom 91 mass 470.37844269794419460595236159861088
  1 settings made for mass
set atom 92 volume 0.52201638099445479834770367233432
  1 settings made for volume
set atom 92 mass 469.81474289500931718066567555069923
  1 settings made for mass
set atom 93 volume 0.52131599877131440390343186663813
  1 settings made for volume
set atom 93 mass 469.18439889418294796996633522212505
  1 settings made for mass
set atom 94 volume 0.52180292469032285573860008298652
  1 settings made for volume
set atom 94 mass 469.62263222129058704013004899024963
  1 settings made for mass
set atom 95 volume 0.51828692725034675170547870948212
  1 settings made for volume
set atom 95 mass 466.45823452531209341032081283628941
  1 settings made for mass
set atom 96 volume 0.51748724007285440418257849160000
  1 settings made for volume
set atom 96 mass 465.73851606556894466848461888730526
  1 settings made for mass
set atom 97 volume 0.52610257443529917509295046329498
  1 settings made for volume
set atom 97 mass 473.49231699176925758365541696548462
  1 settings made for mass
set atom 98 volume 0.51939594773505282088166268295026
  1 settings made for volume
set atom 98 mass 467.45635296154756588293821550905704
  1 settings made for mass
set atom 99 volume 0.52595634778524846808522852370515
  1 settings made for volume
set atom 99 mass 473.36071300672364259298774413764477
  1 settings made for mass
set atom 100 volume 0.53632164057012088331788390860311
  1 settings made for volume
set atom 100 mass 482.68947651310878654840053059160709
  1 settings made for mass
set atom 101 volume 0.51994613662597377601315429274109
  1 settings made for volume
set atom 101 mass 467.95152296337641928403172641992569
  1 settings made for mass
set atom 102 volume 0.52215612510268327728368831230910
  1 settings made for volume
set atom 102 mass 469.94051259241496154572814702987671
  1 settings made for mass
set atom 103 volume 0.52609558782777021690435503842309
  1 settings made for volume
set atom 103 mass 473.48602904499318810849217697978020
  1 settings made for mass
set atom 104 volume 0.52649541799089816240808659131289
  1 settings made for volume
set atom 104 mass 473.84587619180837236854131333529949
  1 settings made for mass
set atom 105 volume 0.52117876470323132309658831218258
  1 settings made for volume
set atom 105 mass 469.06088823290821210321155376732349
  1 settings made for mass
set atom 106 volume 0.51837516298418540028336565228528
  1 settings made for volume
set atom 106 mass 466.53764668576684471190674230456352
  1 settings made for mass
set atom 107 volume 0.52744661912622403665551473750384
  1 settings made for volume
set atom 107 mass 474.70195721360164498037192970514297
  1 settings made for mass
set atom 108 volume 0.52756413898912157822707058585365
  1 settings made for volume
set atom 108 mass 474.80772509020943061841535381972790
  1 settings made for mass
set atom 109 volume 0.52524927669377152739116354496218
  1 settings made for volume
set atom 109 mass 472.72434902439437109933351166546345
  1 settings made for mass
set atom 110 volume 0.52589822199150515480425838177325
  1 settings made for volume
set atom 110 mass 473.30839979235463488294044509530067
  1 settings made for mass
set atom 111 volume 0.52578201637320731709479559867759
  1 settings made for volume
set atom 111 mass 473.20381473588656717765843495726585
  1 settings made for mass
set atom 112 volume 0.52068193541663021495224938917090
  1 settings made for volume
set atom 112 mass 468.61374187496721788193099200725555
  1 settings made for mass
set atom 113 volume 0.52129613030649823990358981973259
  1 settings made for volume
set atom 113 mass 469.16651727584843456497765146195889
  1 settings made for mass
set atom 114 volume 0.53085747635034041813639760221122
  1 settings made for volume
set atom 114 mass 477.77172871530638076364994049072266
  1 settings made for mass
set atom 115 volume 0.52409773042073903859261463367147
  1 settings made for volume
set atom 115 mass 471.68795737866514627967262640595436
  1 settings made for mass
set atom 116 volume 0.52496876424605165567527365055867
  1 settings made for volume
set atom 116 mass 472.47188782144650076588732190430164
  1 settings made for mass
set atom 117 volume 0.52636141769654687383450664128759
  1 settings made for volume
set atom 117 mass 473.72527592689220909960567951202393
  1 settings made for mass
set atom 118 volume 0.52001571097085885764244039819459
  1 settings made for volume
set atom 118 mass 468.01413987377299008585396222770214
  1 settings made for mass
set atom 119 volume 0.52196932188025635390715706307674
  1 settings made for volume
set atom 119 mass 469.77238969223071762826293706893921
  1 settings made for mass
set atom 120 volume 0.51690553636410718763016802768107
  1 settings made for volume
set atom 120 mass 465.21498272769645154767204076051712
  1 settings made for mass
set atom 121 volume 0.51801954935600480478541385309654
  1 settings made for volume
set atom 121 mass 466.21759442040433896181639283895493
  1 settings made for mass
set atom 122 volume 0.52628031073553493968120164936408
  1 settings made for volume
set atom 122 mass 473.65227966198142439679941162467003
  1 settings made for mass
set atom 123 volume 0.52302879106277433418625832928228
  1 settings made for volume
set atom 123 mass 470.72591195649687279001227580010891
  1 settings made for mass
set atom 124 volume 0.52749502805109871328426152103930
  1 settings made for volume
set atom 124 mass 474.74552524598885838713613338768482
  1 settings made for mass
set atom 125 volume 0.52306968221561656040563548231148
  1 settings made for volume
set atom 125 mass 470.76271399405487727563013322651386
  1 settings made for mass
set atom 126 volume 0.52332311975062550946091732839704
  1 settings made for volume
set atom 126 mass 470.99080777556298471608897671103477
  1 settings made for mass
set atom 127 volume 0.52961544463830845241858469307772
  1 settings made for volume
set atom 127 mass 476.65390017447759873903123661875725
  1 settings made for mass
set atom 128 volume 0.52561581850473204635676438556402
  1 settings made for volume
set atom 128 mass 473.05423665425882973067928105592728
  1 settings made for mass
set atom 129 volume 0.52769055798224517861427784737316
  1 settings made for volume
set atom 129 mass 474.92150218402065320333349518477917
  1 settings made for mass
set atom 130 volume 0.52816374970321988691068781918148
  1 settings made for volume
set atom 130 mass 475.34737473289789022601325996220112
  1 settings made for mass
set atom 131 volume 0.52299562145805600366088583541568
  1 settings made for volume
set atom 131 mass 470.69605931225038375487201847136021
  1 settings made for mass
set atom 132 volume 0.52400913249286984463282124124817
  1 settings made for volume
set atom 132 mass 471.60821924358288015355356037616730
  1 settings made for mass
set atom 133 volume 0.52531309174443907572538137173979
  1 settings made for volume
set atom 133 mass 472.78178256999518680459004826843739
  1 settings made for mass
set atom 134 volume 0.52437818743278452604528183655930
  1 settings made for volume
set atom 134 mass 471.94036868950610141837387345731258
  1 settings made for mass
set atom 135 volume 0.51922283463534746328349456234719
  1 settings made for volume
set atom 135 mass 467.30055117181274226823006756603718
  1 settings made for mass
set atom 136 volume 0.51934269971289759304511335358256
  1 settings made for volume
set atom 136 mass 467.40842974160784706327831372618675
  1 settings made for mass
set atom 137 volume 0.52392336483773627175963838453754
  1 settings made for volume
set atom 137 mass 471.53102835396265390954795293509960
  1 settings made for mass
set atom 138 volume 0.51893563730096292641036370696384
  1 settings made for volume
set atom 138 mass 467.04207357086664842427126131951809
  1 settings made for mass
set atom 139 volume 0.52317178538567132850545249311836
  1 settings made for volume
set atom 139 mass 470.85460684710420764531590975821018
  1 settings made for mass
set atom 140 volume 0.52237483757730407418762297311332
  1 settings made for volume
set atom 140 mass 470.13735381957366143979015760123730
  1 settings made for mass
set atom 141 volume 0.52338597099519723609972743361141
  1 settings made for volume
set atom 141 mass 471.04737389567753780283965170383453
  1 settings made for mass
set atom 142 volume 0.52333893160423827772831373295048
  1 settings made for volume
set atom 142 mass 471.00503844381444196187658235430717
  1 settings made for mass
set atom 143 volume 0.52335192237355820932265260125860
  1 settings made for volume
set atom 143 mass 471.01673013620239771626074798405170
  1 settings made for mass
set atom 144 volume 0.52241374530835960054986344403005
  1 settings made for volume
set atom 144 mass 470.17237077752366758431890048086643
  1 settings made for mass
set atom 145 volume 0.52071921370433471576433248628746
  1 settings made for volume
set atom 145 mass 468.64729233390124818470212630927563
  1 settings made for mass
set atom 146 volume 0.52750045028075620567875603228458
  1 settings made for volume
set atom 146 mass 474.75040525268059354857541620731354
  1 settings made for mass
set atom 147 volume 0.52224118225690907557634545810288
  1 settings made for volume
set atom 147 mass 470.01706403121818311774404719471931
  1 settings made for mass
set atom 148 volume 0.52277618113397172905365550832357
  1 settings made for volume
set atom 148 mass 470.49856302057457924092886969447136
  1 settings made for mass
set atom 149 volume 0.52651479773787479565783087309683
  1 settings made for volume
set atom 149 mass 473.86331796408734362557879649102688
  1 settings made for mass
set atom 150 volume 0.51925785061565954414675161388004
  1 settings made for volume
set atom 150 mass 467.33206555409361726560746319591999
  1 settings made for mass
set atom 151 volume 0.52122713469685466591840850014705
  1 settings made for volume
set atom 151 mass 469.10442122716921176106552593410015
  1 settings made for mass
set atom 152 volume 0.52655116200043694529853155472665
  1 settings made for volume
set atom 152 mass 473.89604580039326719997916370630264
  1 settings made for mass
set atom 153 volume 0.52756757493159422978123984648846
  1 settings made for volume
set atom 153 mass 474.81081743843481035582954064011574
  1 settings made for mass
set atom 154 volume 0.51760314584446653896065981825814
  1 settings made for volume
set atom 154 mass 465.84283126001986374831176362931728
  1 settings made for mass
set atom 155 volume 0.52644602109504234910275499714771
  1 settings made for volume
set atom 155 mass 473.80141898553813462058315053582191
  1 settings made for mass
set atom 156 volume 0.52317671341245974847566913012997
  1 settings made for volume
set atom 156 mass 470.85904207121376430222881026566029
  1 settings made for mass
set atom 157 volume 0.52303283630990160535390032237046
  1 settings made for volume
set atom 157 mass 470.72955267891143193992320448160172
  1 settings made for mass
set atom 158 volume 0.52361062704391780897594799171202
  1 settings made for volume
set atom 158 mass 471.24956433952604584192158654332161
  1 settings made for mass
set atom 159 volume 0.52785424068399000585571911869920
  1 settings made for volume
set atom 159 mass 475.06881661559100393787957727909088
  1 settings made for mass
set atom 160 volume 0.52438657712045877445916630676948
  1 settings made for volume
set atom 160 mass 471.94791940841287214425392448902130
  1 settings made for mass
set atom 161 volume 0.52541311848315597199388093940797
  1 settings made for volume
set atom 161 mass 472.87180663484036813315469771623611
  1 settings made for mass
set atom 162 volume 0.52812168038302087502700032928260
  1 settings made for volume
set atom 162 mass 475.30951234471876887255348265171051
  1 settings made for mass
set atom 163 volume 0.52254318374088437604285672932747
  1 settings made for volume
set atom 163 mass 470.28886536679596019894233904778957
  1 settings made for mass
set atom 164 volume 0.52887463936963718946770995898987
  1 settings made for volume
set atom 164 mass 475.98717543267349583402392454445362
  1 settings made for mass
set atom 165 volume 0.52149363866201081663120930898003
  1 settings made for volume
set atom 165 mass 469.34427479580972430994734168052673
  1 settings made for mass
set atom 166 volume 0.51418106628331639029738653334789
  1 settings made for volume
set atom 166 mass 462.76295965498474060950684361159801
  1 settings made for mass
set atom 167 volume 0.52375078340365932572098017772078
  1 settings made for volume
set atom 167 mass 471.37570506329336694761877879500389
  1 settings made for mass
set atom 168 volume 0.52461980886945591695535995313548
  1 settings made for volume
set atom 168 mass 472.15782798251029817038215696811676
  1 settings made for mass
set atom 169 volume 0.52207683918035252546019364672247
  1 settings made for volume
set atom 169 mass 469.86915526231729245409951545298100
  1 settings made for mass
set atom 170 volume 0.51470129386523233439021396407043
  1 settings made for volume
set atom 170 mass 463.23116447870910405981703661382198
  1 settings made for mass
set atom 171 volume 0.52974341709528471877632682662806
  1 settings made for volume
set atom 171 mass 476.76907538575625267185387201607227
  1 settings made for mass
set atom 172 volume 0.52598691418496201777088572271168
  1 settings made for volume
set atom 172 mass 473.38822276646578757208772003650665
  1 settings made for mass
set atom 173 volume 0.52150710762565055667039359832415
  1 settings made for volume
set atom 173 mass 469.35639686308547879889374598860741
  1 settings made for mass
set atom 174 volume 0.52063008665742216418692578372429
  1 settings made for volume
set atom 174 mass 468.56707799167992334332666359841824
  1 settings made for mass
set atom 175 volume 0.52944971429895559822398354299366
  1 settings made for volume
set atom 175 mass 476.50474286906000997987575829029083
  1 settings made for mass
set atom 176 volume 0.52380097340225240110100912716007
  1 settings made for volume
set atom 176 mass 471.42087606202716187908663414418697
  1 settings made for mass
set atom 177 volume 0.51864655031553585917691862050560
  1 settings made for volume
set atom 177 mass 466.78189528398229413141962140798569
  1 settings made for mass
set atom 178 volume 0.52309651292235415098730300087482
  1 settings made for volume
set atom 178 mass 470.78686163011872167771798558533192
  1 settings made for mass
set atom 179 volume 0.52064551454973417854432682361221
  1 settings made for volume
set atom 179 mass 468.58096309476076157807256095111370
  1 settings made for mass
set atom 180 volume 0.52170127569175661630396234613727
  1 settings made for volume
set atom 180 mass 469.53114812258093024865956977009773
  1 settings made for mass
set atom 181 volume 0.52491530683631448805925856504473
  1 settings made for volume
set atom 181 mass 472.42377615268304680284927599132061
  1 settings made for mass
set atom 182 volume 0.52602571480713100626758205180522
  1 settings made for volume
set atom 182 mass 473.42314332641791452260804362595081
  1 settings made for mass
set atom 183 volume 0.52059349370494734099423794759787
  1 settings made for volume
set atom 183 mass 468.53414433445260556254652328789234
  1 settings made for mass
set atom 184 volume 0.52098551821327110378234692689148
  1 settings made for volume
set atom 184 mass 468.88696639194398585459566675126553
  1 settings made for mass
set atom 185 volume 0.52207148723096097331364262572606
  1 settings made for volume
set atom 185 mass 469.86433850786488619633018970489502
  1 settings made for mass
set atom 186 volume 0.51910600103535819993538780181552
  1 settings made for volume
set atom 186 mass 467.19540093182240525493398308753967
  1 settings made for mass
set atom 187 volume 0.52112140847285082223550034541404
  1 settings made for volume
set atom 187 mass 469.00926762556571247841930016875267
  1 settings made for mass
set atom 188 volume 0.52254379467284683968841818568762
  1 settings made for volume
set atom 188 mass 470.28941520556213617965113371610641
  1 settings made for mass
set atom 189 volume 0.52503570456258208398736542221741
  1 settings made for volume
set atom 189 mass 472.53213410632389468446490354835987
  1 settings made for mass
set atom 190 volume 0.51991010829152706218536650339956
  1 settings made for volume
set atom 190 mass 467.91909746237433864735066890716553
  1 settings made for mass
set atom 191 volume 0.52701907035685036095884470341844
  1 settings made for volume
set atom 191 mass 474.31716332116531020801630802452564
  1 settings made for mass
set atom 192 volume 0.52604491019804699991624374888488
  1 settings made for volume
set atom 192 mass 473.44041917824227994060493074357510
  1 settings made for mass
set atom 193 volume 0.52365968422633479839589654147858
  1 settings made for volume
set atom 193 mass 471.29371580370133187898318283259869
  1 settings made for mass
set atom 194 volume 0.52550670802512389201410769601353
  1 settings made for volume
set atom 194 mass 472.95603722261148504912853240966797
  1 settings made for mass
set atom 195 volume 0.52381961416063294034728414771962
  1 settings made for volume
set atom 195 mass 471.43765274456961833493551239371300
  1 settings made for mass
set atom 196 volume 0.52375258161736948370190702917171
  1 settings made for volume
set atom 196 mass 471.37732345563256330933654680848122
  1 settings made for mass
set atom 197 volume 0.51957989881698907197460357565433
  1 settings made for volume
set atom 197 mass 467.62190893529015056628850288689137
  1 settings made for mass
set atom 198 volume 0.52429639819849449544619801599765
  1 settings made for volume
set atom 198 mass 471.86675837864504501339979469776154
  1 settings made for mass
set atom 199 volume 0.52063076450595191513315285192220
  1 settings made for volume
set atom 199 mass 468.56768805535671162942890077829361
  1 settings made for mass
set atom 200 volume 0.52476778872202589631967839522986
  1 settings made for volume
set atom 200 mass 472.29100984982329691774793900549412
  1 settings made for mass
set atom 201 volume 0.52023484943535525104607586399652
  1 settings made for volume
set atom 201 mass 468.21136449181972238875459879636765
  1 settings made for mass
set atom 202 volume 0.52093499631500173041587231637095
  1 settings made for volume
set atom 202 mass 468.84149668350153206120012328028679
  1 settings made for mass
set atom 203 volume 0.52191705667093291065583571253228
  1 settings made for volume
set atom 203 mass 469.72535100383959161263192072510719
  1 settings made for mass
set atom 204 volume 0.52036421689212153385284409523592
  1 settings made for volume
set atom 204 mass 468.32779520290938535254099406301975
  1 settings made for mass
set atom 205 volume 0.52400489272895667269835939805489
  1 settings made for volume
set atom 205 mass 471.60440345606099299402558244764805
  1 settings made for mass
set atom 206 volume 0.51574653973458262079532232746715
  1 settings made for volume
set atom 206 mass 464.17188576112437203846639022231102
  1 settings made for mass
set atom 207 volume 0.52786085675441885012304510382819
  1 settings made for volume
set atom 207 mass 475.07477107897693713312037289142609
  1 settings made for mass
set atom 208 volume 0.52276868502365614332916265993845
  1 settings made for volume
set atom 208 mass 470.49181652129050235089380294084549
  1 settings made for mass
set atom 209 volume 0.52417522786185655192525700840633
  1 settings made for volume
set atom 209 mass 471.75770507567091271994286216795444
  1 settings made for mass
set atom 210 volume 0.52148859371530931205995784694096
  1 settings made for volume
set atom 210 mass 469.33973434377838884756783954799175
  1 settings made for mass
set atom 211 volume 0.52313406515233451532509434400708
  1 settings made for volume
set atom 211 mass 470.82065863710107578299357555806637
  1 settings made for mass
set atom 212 volume 0.52700966118800673942956791506731
  1 settings made for volume
set atom 212 mass 474.30869506920606681887875311076641
  1 settings made for mass
set atom 213 volume 0.52446586208420298280685756253661
  1 settings made for volume
set atom 213 mass 472.01927587578268230572575703263283
  1 settings made for mass
set atom 214 volume 0.52542912320449386420762039051624
  1 settings made for volume
set atom 214 mass 472.88621088404448755682096816599369
  1 settings made for mass
set atom 215 volume 0.52436633095888429689779286491103
  1 settings made for volume
set atom 215 mass 471.92969786299585166489123366773129
  1 settings made for mass
set atom 216 volume 0.52534519200592000309768536681077
  1 settings made for volume
set atom 216 mass 472.81067280532801078152260743081570
  1 settings made for mass
set atom 217 volume 0.51852551890980813631415458075935
  1 settings made for volume
set atom 217 mass 466.67296701882730758370598778128624
  1 settings made for mass
set atom 218 volume 0.52361814945127904685762132430682
  1 settings made for volume
set atom 218 mass 471.25633450615111996739869937300682
  1 settings made for mass
set atom 219 volume 0.52132998940235586449176707901643
  1 settings made for volume
set atom 219 mass 469.19699046212025450586224906146526
  1 settings made for mass
set atom 220 volume 0.52289328619633690387047408876242
  1 settings made for volume
set atom 220 mass 470.60395757670323746424401178956032
  1 settings made for mass
set atom 221 volume 0.52558958109661635393905498858658
  1 settings made for volume
set atom 221 mass 473.03062298695471099563292227685452
  1 settings made for mass
set atom 222 volume 0.52229905311430901981850638549076
  1 settings made for volume
set atom 222 mass 470.06914780287809207948157563805580
  1 settings made for mass
set atom 223 volume 0.52407620023202916570426168618724
  1 settings made for volume
set atom 223 mass 471.66858020882625623926287516951561
  1 settings made for mass
set atom 224 volume 0.52492876957758183298352605561377
  1 settings made for volume
set atom 224 mass 472.43589261982367588643683120608330
  1 settings made for mass
set atom 225 volume 0.52337433773164609984718254054314
  1 settings made for volume
set atom 225 mass 471.03690395848150274105137214064598
  1 settings made for mass
set atom 226 volume 0.52198984667744063870031823171303
  1 settings made for volume
set atom 226 mass 469.79086200969658193571376614272594
  1 settings made for mass
set atom 227 volume 0.52306376326498427165034854624537
  1 settings made for volume
set atom 227 mass 470.75738693848586535750655457377434
  1 settings made for mass
set atom 228 volume 0.52243974786067626236985006471514
  1 settings made for volume
set atom 228 mass 470.19577307460860993160167708992958
  1 settings made for mass
set atom 229 volume 0.52050149230925402132896806506324
  1 settings made for volume
set atom 229 mass 468.45134307832859121845103800296783
  1 settings made for mass
set atom 230 volume 0.52132988835306293129434607180883
  1 settings made for volume
set atom 230 mass 469.19689951775666258981800638139248
  1 settings made for mass
set atom 231 volume 0.52216056215819539598754772669054
  1 settings made for volume
set atom 231 mass 469.94450594237588347823475487530231
  1 settings made for mass
set atom 232 volume 0.52773345601598986576163952122442
  1 settings made for volume
set atom 232 mass 474.96011041439089694904396310448647
  1 settings made for mass
set atom 233 volume 0.52339108393329258905879441954312
  1 settings made for volume
set atom 233 mass 471.05197553996333681425312533974648
  1 settings made for mass
set atom 234 volume 0.52048834063928650639496709118248
  1 settings made for volume
set atom 234 mass 468.43950657535788195673376321792603
  1 settings made for mass
set atom 235 volume 0.52359935741059204783454106291174
  1 settings made for volume
set atom 235 mass 471.23942166953281684982357546687126
  1 settings made for mass
set atom 236 volume 0.52190650138334437890819117455976
  1 settings made for volume
set atom 236 mass 469.71585124500995789276203140616417
  1 settings made for mass
set atom 237 volume 0.52648144801488194755023641846492
  1 settings made for volume
set atom 237 mass 473.83330321339377633194089867174625
  1 settings made for mass
set atom 238 volume 0.52022777328209079961141014791792
  1 settings made for volume
set atom 238 mass 468.20499595388173474930226802825928
  1 settings made for mass
set atom 239 volume 0.52369271112720972016774112489657
  1 settings made for volume
set atom 239 mass 471.32344001448876724680303595960140
  1 settings made for mass
set atom 240 volume 0.52294806146706052096817529672990
  1 settings made for volume
set atom 240 mass 470.65325532035444666689727455377579
  1 settings made for mass
set atom 241 volume 0.52463181860245333698600234129117
  1 settings made for volume
set atom 241 mass 472.16863674220797975067398510873318
  1 settings made for mass
set atom 242 volume 0.52504340967704210552113863741397
  1 settings made for volume
set atom 242 mass 472.53906870933786876776139251887798
  1 settings made for mass
set atom 243 volume 0.52541988557026608752664742496563
  1 settings made for volume
set atom 243 mass 472.87789701323947610944742336869240
  1 settings made for mass
set atom 244 volume 0.52706691018496265588311189276283
  1 settings made for volume
set atom 244 mass 474.36021916646637919257045723497868
  1 settings made for mass
set atom 245 volume 0.52490174904252684395800088168471
  1 settings made for volume
set atom 245 mass 472.41157413827414757179212756454945
  1 settings made for mass
set atom 246 volume 0.51909533749182501516372667538235
  1 settings made for volume
set atom 246 mass 467.18580374264251986460294574499130
  1 settings made for mass
set atom 247 volume 0.52468483833024370799336111304001
  1 settings made for volume
set atom 247 mass 472.21635449721935628986102528870106
  1 settings made for mass
set atom 248 volume 0.52574667037212319264938287233235
  1 settings made for volume
set atom 248 mass 473.17200333491086894355248659849167
  1 settings made for mass
set atom 249 volume 0.51968389314844365411971693902160
  1 settings made for volume
set atom 249 mass 467.71550383359931402083020657300949
  1 settings made for mass
set atom 250 volume 0.52290378998860842507667712197872
  1 settings made for volume
set atom 250 mass 470.61341098974759233897202648222446
  1 settings made for mass
set atom 251 volume 0.52127326179839517106273660829174
  1 settings made for volume
set atom 251 mass 469.14593561855565440055215731263161
  1 settings made for mass
set atom 252 volume 0.52310614426203527749237309762975
  1 settings made for volume
set atom 252 mass 470.79552983583175773674156516790390
  1 settings made for mass
set atom 253 volume 0.52916845826283098741527055608458
  1 settings made for volume
set atom 253 mass 476.25161243654787313062115572392941
  1 settings made for mass
set atom 254 volume 0.52859444258038801311982979314052
  1 settings made for volume
set atom 254 mass 475.73499832234921314011444337666035
  1 settings made for mass
set atom 255 volume 0.52370487432938084282341151265427
  1 settings made for volume
set atom 255 mass 471.33438689644276564649771898984909
  1 settings made for mass
set atom 256 volume 0.52308288380297562891740881241276
  1 settings made for volume
set atom 256 mass 470.77459542267808956239605322480202
  1 settings made for mass
set atom 257 volume 0.52168863961599221124032510488178
  1 settings made for volume
set atom 257 mass 469.51977565439301542937755584716797
  1 settings made for mass
set atom 258 volume 0.52692954701877026124634539883118
  1 settings made for volume
set atom 258 mass 474.23659231689322268721298314630985
  1 settings made for mass
set atom 259 volume 0.51999242297367986864742306352127
  1 settings made for volume
set atom 259 mass 467.99318067631190842803334817290306
  1 settings made for mass
set atom 260 volume 0.52428859257037097041376227934961
  1 settings made for volume
set atom 260 mass 471.85973331333389069186523556709290
  1 settings made for mass
set atom 261 volume 0.52905077628499486142032992574968
  1 settings made for volume
set atom 261 mass 476.14569865649536950513720512390137
  1 settings made for mass
set atom 262 volume 0.52280394734048707405804634618107
  1 settings made for volume
set atom 262 mass 470.52355260643838619216694496572018
  1 settings made for mass
set atom 263 volume 0.52210300700455869460370195156429
  1 settings made for volume
set atom 263 mass 469.89270630410283047240227460861206
  1 settings made for mass
set atom 264 volume 0.52575325058503796782360950601287
  1 settings made for volume
set atom 264 mass 473.17792552653418169938959181308746
  1 settings made for mass
set atom 265 volume 0.52187381698352619530112406209810
  1 settings made for volume
set atom 265 mass 469.68643528517355889562168158590794
  1 settings made for mass
set atom 266 volume 0.52435855143751053386580451842747
  1 settings made for volume
set atom 266 mass 471.92269629375948625238379463553429
  1 settings made for mass
set atom 267 volume 0.52336960272378363345779916926404
  1 settings made for volume
set atom 267 mass 471.03264245140525190436164848506451
  1 settings made for mass
set atom 268 volume 0.52275871274791774201418093070970
  1 settings made for volume
set atom 268 mass 470.48284147312597269774414598941803
  1 settings made for mass
set atom 269 volume 0.52564986890191711665920593077317
  1 settings made for volume
set atom 269 mass 473.08488201172542630956741049885750
  1 settings made for mass
set atom 270 volume 0.52077149245663423293706273398129
  1 settings made for volume
set atom 270 mass 468.69434321097082829510327428579330
  1 settings made for mass
set atom 271 volume 0.52759370731025168055339236161672
  1 settings made for volume
set atom 271 mass 474.83433657922648762905737385153770
  1 settings made for mass
set atom 272 volume 0.52498877970160551242884139355738
  1 settings made for volume
set atom 272 mass 472.48990173144494519874569959938526
  1 settings made for mass
set atom 273 volume 0.52020511432001148577342064527329
  1 settings made for volume
set atom 273 mass 468.18460288801031765615334734320641
  1 settings made for mass
set atom 274 volume 0.52089909776433906962722630851204
  1 settings made for volume
set atom 274 mass 468.80918798790514756547054275870323
  1 settings made for mass
set atom 275 volume 0.52218472037945795616309396791621
  1 settings made for volume
set atom 275 mass 469.96624834151214145094854757189751
  1 settings made for mass
set atom 276 volume 0.52467648344511241820242730682367
  1 settings made for volume
set atom 276 mass 472.20883510060116350359749048948288
  1 settings made for mass
set atom 277 volume 0.52752223580924417767334944073809
  1 settings made for volume
set atom 277 mass 474.77001222831978566318866796791553
  1 settings made for mass
set atom 278 volume 0.52831879537183046302573075081455
  1 settings made for volume
set atom 278 mass 475.48691583464739096598350442945957
  1 settings made for mass
set atom 279 volume 0.52564086687509103956728040429880
  1 settings made for volume
set atom 279 mass 473.07678018758196003545890562236309
  1 settings made for mass
set atom 280 volume 0.52699753194535436939816008816706
  1 settings made for volume
set atom 280 mass 474.29777875081890670116990804672241
  1 settings made for mass
set atom 281 volume 0.51923214615362378587803959817393
  1 settings made for volume
set atom 281 mass 467.30893153826139041484566405415535
  1 settings made for mass
set atom 282 volume 0.52536879048377527201552084079594
  1 settings made for volume
set atom 282 mass 472.83191143539772838266799226403236
  1 settings made for mass
set atom 283 volume 0.52550634198311751976717687284690
  1 settings made for volume
set atom 283 mass 472.95570778480578155722469091415405
  1 settings made for mass
set atom 284 volume 0.51802646181022005134053642905201
  1 settings made for volume
set atom 284 mass 466.22381562919804309785831719636917
  1 settings made for mass
set atom 285 volume 0.52250439594152375821778377940063
  1 settings made for volume
set atom 285 mass 470.25395634737139971548458561301231
  1 settings made for mass
set atom 286 volume 0.52470696247400516742942500059144
  1 settings made for volume
set atom 286 mass 472.23626622660464136060909368097782
  1 settings made for mass
set atom 287 volume 0.52385054456013513402012904407457
  1 settings made for volume
set atom 287 mass 471.46549010412161351268878206610680
  1 settings made for mass
set atom 288 volume 0.52396569274987414566169263707707
  1 settings made for volume
set atom 288 mass 471.56912347488673731277231127023697
  1 settings made for mass
set atom 289 volume 0.52017676956804070886875024370966
  1 settings made for volume
set atom 289 mass 468.15909261123664464321336708962917
  1 settings made for mass
set atom 290 volume 0.51883938772788573690064595211879
  1 settings made for volume
set atom 290 mass 466.95544895509715388470795005559921
  1 settings made for mass
set atom 291 volume 0.52403790244298142919632255143370
  1 settings made for volume
set atom 291 mass 471.63411219868328316806582733988762
  1 settings made for mass
set atom 292 volume 0.52310192631234031512832416410674
  1 settings made for volume
set atom 292 mass 470.79173368110627961868885904550552
  1 settings made for mass
set atom 293 volume 0.52542961844843572016827693005325
  1 settings made for volume
set atom 293 mass 472.88665660359214371055713854730129
  1 settings made for mass
set atom 294 volume 0.52709514486750075334953180572484
  1 settings made for volume
set atom 294 mass 474.38563038075068334364914335310459
  1 settings made for mass
set atom 295 volume 0.52289359160238113588548003463075
  1 settings made for volume
set atom 295 mass 470.60423244214302940235938876867294
  1 settings made for mass
set atom 296 volume 0.52070986750932868325492108851904
  1 settings made for volume
set atom 296 mass 468.63888075839582825210527516901493
  1 settings made for mass
set atom 297 volume 0.52727462309011463581498446728801
  1 settings made for volume
set atom 297 mass 474.54716078110317312166444025933743
  1 settings made for mass
set atom 298 volume 0.52753880507162731472448058411828
  1 settings made for volume
set atom 298 mass 474.78492456446457481433753855526447
  1 settings made for mass
set atom 299 volume 0.52295042093368016011822874133941
  1 settings made for volume
set atom 299 mass 470.65537884031215298819006420671940
  1 settings made for mass
set atom 300 volume 0.52456670313970577002038453429122
  1 settings made for volume
set atom 300 mass 472.11003282573517481068847700953484
  1 settings made for mass
set atom 301 volume 0.52457818811688994298236821123282
  1 settings made for volume
set atom 301 mass 472.12036930520093847007956355810165
  1 settings made for mass
set atom 302 volume 0.52496732558675895941036060321494
  1 settings made for volume
set atom 302 mass 472.47059302808304437348851934075356
  1 settings made for mass
set atom 303 volume 0.51867814116982358108032258314779
  1 settings made for volume
set atom 303 mass 466.81032705284121675504138693213463
  1 settings made for mass
set atom 304 volume 0.52658723468300738801417537615635
  1 settings made for volume
set atom 304 mass 473.92851121470664566004415974020958
  1 settings made for mass
set atom 305 volume 0.52239902817425742931334298191359
  1 settings made for volume
set atom 305 mass 470.15912535683168016475974582135677
  1 settings made for mass
set atom 306 volume 0.52620943155901678256469722327893
  1 settings made for volume
set atom 306 mass 473.58848840311509320599725469946861
  1 settings made for mass
set atom 307 volume 0.52125443824645623092095547690406
  1 settings made for volume
set atom 307 mass 469.12899442181060294387862086296082
  1 settings made for mass
set atom 308 volume 0.52601974425518416289548895292683
  1 settings made for volume
set atom 308 mass 473.41776982966575815225951373577118
  1 settings made for mass
set atom 309 volume 0.52345867137737500662808542983839
  1 settings made for volume
set atom 309 mass 471.11280423963751218252582475543022
  1 settings made for mass
set atom 310 volume 0.52304949459596139504924394714180
  1 settings made for volume
set atom 310 mass 470.74454513636527508424478583037853
  1 settings made for mass
set atom 311 volume 0.52510517161723435641818014119053
  1 settings made for volume
set atom 311 mass 472.59465445551091988818370737135410
  1 settings made for mass
set atom 312 volume 0.52298700346285997841988546497305
  1 settings made for volume
set atom 312 mass 470.68830311657399079194874502718449
  1 settings made for mass
set atom 313 volume 0.52204055318229247717454200028442
  1 settings made for volume
set atom 313 mass 469.83649786406323300980147905647755
  1 settings made for mass
set atom 314 volume 0.52725532862744062256865618110169
  1 settings made for volume
set atom 314 mass 474.52979576469658695714315399527550
  1 settings made for mass
set atom 315 volume 0.52326141221882516152419384525274
  1 settings made for volume
set atom 315 mass 470.93527099694262005868949927389622
  1 settings made for mass
set atom 316 volume 0.52549905191157497696963218913879
  1 settings made for volume
set atom 316 mass 472.94914672041750236530788242816925
  1 settings made for mass
set atom 317 volume 0.52711896901141108706667637306964
  1 settings made for volume
set atom 317 mass 474.40707211026995082647772505879402
  1 settings made for mass
set atom 318 volume 0.52630775529562245917958307472873
  1 settings made for volume
set atom 318 mass 473.67697976606018528400454670190811
  1 settings made for mass
set atom 319 volume 0.52193413091891782684683676052373
  1 settings made for volume
set atom 319 mass 469.74071782702606014936463907361031
  1 settings made for mass
set atom 320 volume 0.52666995996523890966045655659400
  1 settings made for volume
set atom 320 mass 474.00296396871499382541514933109283
  1 settings made for mass
set atom 321 volume 0.52718122212795082148772962682415
  1 settings made for volume
set atom 321 mass 474.46309991515573756259982474148273
  1 settings made for mass
set atom 322 volume 0.51986045292060101274955741246231
  1 settings made for volume
set atom 322 mass 467.87440762854089371103327721357346
  1 settings made for mass
set atom 323 volume 0.51654953128444336396540847999859
  1 settings made for volume
set atom 323 mass 464.89457815599899959124741144478321
  1 settings made for mass
set atom 324 volume 0.52747381191877551476210328473826
  1 settings made for volume
set atom 324 mass 474.72643072689794507823535241186619
  1 settings made for mass
set atom 325 volume 0.52159201275087119231699261945323
  1 settings made for volume
set atom 325 mass 469.43281147578409218112938106060028
  1 settings made for mass
set atom 326 volume 0.53123001126723723430700374592561
  1 settings made for volume
set atom 326 mass 478.10701014051352331080124713480473
  1 settings made for mass
set atom 327 volume 0.52097309287139992317605674543302
  1 settings made for volume
set atom 327 mass 468.87578358425992064439924433827400
  1 settings made for mass
set atom 328 volume 0.52326333567426597248584130284144
  1 settings made for volume
set atom 328 mass 470.93700210683937257272191345691681
  1 settings made for mass
set atom 329 volume 0.52823146144024735182398444521823
  1 settings made for volume
set atom 329 mass 475.40831529622261086842627264559269
  1 settings made for mass
set atom 330 volume 0.52238429121078577832548717196914
  1 settings made for volume
set atom 330 mass 470.14586208970717962074559181928635
  1 settings made for mass
set atom 331 volume 0.51940346348725618952357763191685
  1 settings made for volume
set atom 331 mass 467.46311713853054925493779592216015
  1 settings made for mass
set atom 332 volume 0.52190118481476110989802918993519
  1 settings made for volume
set atom 332 mass 469.71106633328497537149814888834953
  1 settings made for mass
set atom 333 volume 0.52163289123972023109132578611025
  1 settings made for volume
set atom 333 mass 469.46960211574821641988819465041161
  1 settings made for mass
set atom 334 volume 0.52527052122721695770479755083215
  1 settings made for volume
set atom 334 mass 472.74346910449526149022858589887619
  1 settings made for mass
set atom 335 volume 0.52332213336867539066332710717688
  1 settings made for volume
set atom 335 mass 470.98992003180785559379728510975838
  1 settings made for mass
set atom 336 volume 0.52892336729892808211417332131532
  1 settings made for volume
set atom 336 mass 476.03103056903529477494885213673115
  1 settings made for mass
set atom 337 volume 0.52292421088854845745430566239520
  1 settings made for volume
set atom 337 mass 470.63178979969359261303907260298729
  1 settings made for mass
set atom 338 volume 0.52486923238289906468168055653223
  1 settings made for volume
set atom 338 mass 472.38230914460916665120748803019524
  1 settings made for mass
set atom 339 volume 0.51999087918078090719831152455299
  1 settings made for volume
set atom 339 mass 467.99179126270280448807170614600182
  1 settings made for mass
set atom 340 volume 0.52450260624358724381721685858793
  1 settings made for volume
set atom 340 mass 472.05234561922850389237282797694206
  1 settings made for mass
set atom 341 volume 0.52399884177640432270095516287256
  1 settings made for volume
set atom 341 mass 471.59895759876388865450280718505383
  1 settings made for mass
set atom 342 volume 0.52184586426113432899853705748683
  1 settings made for volume
set atom 342 mass 469.66127783502088277600705623626709
  1 settings made for mass
set atom 343 volume 0.52172244742951501272898440220160
  1 settings made for volume
set atom 343 mass 469.55020268656352300240541808307171
  1 settings made for mass
set atom 344 volume 0.52683360651294597332139346690383
  1 settings made for volume
set atom 344 mass 474.15024586165139908189303241670132
  1 settings made for mass
set atom 345 volume 0.51998737937144079435114463194623
  1 settings made for volume
set atom 345 mass 467.98864143429671003104886040091515
  1 settings made for mass
set atom 346 volume 0.52219240242480124969404187140753
  1 settings made for volume
set atom 346 mass 469.97316218232111850738874636590481
  1 settings made for mass
set atom 347 volume 0.52307114310149604996524885791587
  1 settings made for volume
set atom 347 mass 470.76402879134644763325923122465611
  1 settings made for mass
set atom 348 volume 0.52627425297615459953703975770622
  1 settings made for volume
set atom 348 mass 473.64682767853912537248106673359871
  1 settings made for mass
set atom 349 volume 0.52575533434495558271493109714356
  1 settings made for volume
set atom 349 mass 473.17980091046001689392141997814178
  1 settings made for mass
set atom 350 volume 0.52292494562585523087960837074206
  1 settings made for volume
set atom 350 mass 470.63245106326968425491941161453724
  1 settings made for mass
set atom 351 volume 0.52683401137116070422905522718793
  1 settings made for volume
set atom 351 mass 474.15061023404462048347340896725655
  1 settings made for mass
set atom 352 volume 0.52450186528528008889082911991864
  1 settings made for volume
set atom 352 mass 472.05167875675209643304697237908840
  1 settings made for mass
set atom 353 volume 0.52299135160276033484905156001332
  1 settings made for volume
set atom 353 mass 470.69221644248432312451768666505814
  1 settings made for mass
set atom 354 volume 0.52327035366555130213583879594808
  1 settings made for volume
set atom 354 mass 470.94331829899618924173410050570965
  1 settings made for mass
set atom 355 volume 0.52010563446696289613413455299451
  1 settings made for volume
set atom 355 mass 468.09507102026663005744921974837780
  1 settings made for mass
set atom 356 volume 0.52176095363159280537956874468364
  1 settings made for volume
set atom 356 mass 469.58485826843354971060762181878090
  1 settings made for mass
set atom 357 volume 0.52315438991466256535289858220494
  1 settings made for volume
set atom 357 mass 470.83895092319630748534109443426132
  1 settings made for mass
set atom 358 volume 0.52577887347291407671434626536211
  1 settings made for volume
set atom 358 mass 473.20098612562264861480798572301865
  1 settings made for mass
set atom 359 volume 0.52292190957319861777108371825307
  1 settings made for volume
set atom 359 mass 470.62971861587874400356668047606945
  1 settings made for mass
set atom 360 volume 0.52380036960562748049596848431975
  1 settings made for volume
set atom 360 mass 471.42033264506471823551692068576813
  1 settings made for mass
set atom 361 volume 0.52018828291823893117395982699236
  1 settings made for volume
set atom 361 mass 468.16945462641501762846019119024277
  1 settings made for mass
set atom 362 volume 0.52722277631478364767758648667950
  1 settings made for volume
set atom 362 mass 474.50049868330529534432571381330490
  1 settings made for mass
set atom 363 volume 0.52177758869798196439404591728817
  1 settings made for volume
set atom 363 mass 469.59982982818377195144421420991421
  1 settings made for mass
set atom 364 volume 0.52509906534179040527021697926102
  1 settings made for volume
set atom 364 mass 472.58915880761134076237794943153858
  1 settings made for mass
set atom 365 volume 0.52019317926791186490476093240432
  1 settings made for volume
set atom 365 mass 468.17386134112069839829928241670132
  1 settings made for mass
set atom 366 volume 0.51798723223722376030053737849812
  1 settings made for volume
set atom 366 mass 466.18850901350140247814124450087547
  1 settings made for mass
set atom 367 volume 0.52651912301967884744158254761714
  1 settings made for volume
set atom 367 mass 473.86721071771097513192216865718365
  1 settings made for mass
set atom 368 volume 0.52669892244280613891049824815127
  1 settings made for volume
set atom 368 mass 474.02903019852550414725556038320065
  1 settings made for mass
set atom 369 volume 0.52480497510630941260245663215755
  1 settings made for volume
set atom 369 mass 472.32447759567844514094758778810501
  1 settings made for mass
set atom 370 volume 0.52291772436992944861344767559785
  1 settings made for volume
set atom 370 mass 470.62595193293651618660078383982182
  1 settings made for mass
set atom 371 volume 0.52798613275861561167090485469089
  1 settings made for volume
set atom 371 mass 475.18751948275405538879567757248878
  1 settings made for mass
set atom 372 volume 0.51869632917685115636174941755598
  1 settings made for volume
set atom 372 mass 466.82669625916605582460761070251465
  1 settings made for mass
set atom 373 volume 0.52444583908429553975594217263279
  1 settings made for volume
set atom 373 mass 472.00125517586599244168610312044621
  1 settings made for mass
set atom 374 volume 0.51810628250922996507199513871456
  1 settings made for volume
set atom 374 mass 466.29565425830696767661720514297485
  1 settings made for mass
set atom 375 volume 0.52372977869409531592737039318308
  1 settings made for volume
set atom 375 mass 471.35680082468576301835128106176853
  1 settings made for mass
set atom 376 volume 0.52397254226263412224540161332698
  1 settings made for volume
set atom 376 mass 471.57528803637069358956068754196167
  1 settings made for mass
set atom 377 volume 0.52117904855161123478524132224265
  1 settings made for volume
set atom 377 mass 469.06114369645013084664242342114449
  1 settings made for mass
set atom 378 volume 0.51887073027460606233773887652205
  1 settings made for volume
set atom 378 mass 466.98365724714545876850024797022343
  1 settings made for mass
set atom 379 volume 0.52173919583587857751183491927804
  1 settings made for volume
set atom 379 mass 469.56527625229074374146875925362110
  1 settings made for mass
set atom 380 volume 0.52476212639510810831211529148277
  1 settings made for volume
set atom 380 mass 472.28591375559727794097852893173695
  1 settings made for mass
set atom 381 volume 0.51840593733051920644072652066825
  1 settings made for volume
set atom 381 mass 466.56534359746729023754596710205078
  1 settings made for mass
set atom 382 volume 0.52232593361044743485166463869973
  1 settings made for volume
set atom 382 mass 470.09334024940267227066215127706528
  1 settings made for mass
set atom 383 volume 0.52348594677856341572663723127334
  1 settings made for volume
set atom 383 mass 471.13735210070706216356484219431877
  1 settings made for mass
set atom 384 volume 0.52080535360826907265163754345849
  1 settings made for volume
set atom 384 mass 468.72481824744215828104643151164055
  1 settings made for mass
set atom 385 volume 0.52266122561209138464022316838964
  1 settings made for volume
set atom 385 mass 470.39510305088225550207425840198994
  1 settings made for mass
set atom 386 volume 0.53039572991498362686257905806997
  1 settings made for volume
set atom 386 mass 477.35615692348528682487085461616516
  1 settings made for mass
set atom 387 volume 0.52963013235965472613742122121039
  1 settings made for volume
set atom 387 mass 476.66711912368924686234095133841038
  1 settings made for mass
set atom 388 volume 0.52829568882238264748707479157019
  1 settings made for volume
set atom 388 mass 475.46611994014438096201047301292419
  1 settings made for mass
set atom 389 volume 0.51996529585632889070012652155128
  1 settings made for volume
set atom 389 mass 467.96876627069599408059730194509029
  1 settings made for mass
set atom 390 volume 0.52459875448474824199962540660636
  1 settings made for volume
set atom 390 mass 472.13887903627340847378945909440517
  1 settings made for mass
set atom 391 volume 0.51949371256847731714856308826711
  1 settings made for volume
set atom 391 mass 467.54434131162958010463626123964787
  1 settings made for mass
set atom 392 volume 0.52216524235907035844661550072487
  1 settings made for volume
set atom 392 mass 469.94871812316330306202871724963188
  1 settings made for mass
set atom 393 volume 0.52457137033630840683429141790839
  1 settings made for volume
set atom 393 mass 472.11423330267757592082489281892776
  1 settings made for mass
set atom 394 volume 0.52121976629729693808457113846089
  1 settings made for volume
set atom 394 mass 469.09778966756726958919898606836796
  1 settings made for mass
set atom 395 volume 0.52336465862885073185850615118397
  1 settings made for volume
set atom 395 mass 471.02819276596568442982970736920834
  1 settings made for mass
set atom 396 volume 0.52241092709589020959271010724478
  1 settings made for volume
set atom 396 mass 470.16983438630120417656144127249718
  1 settings made for mass
set atom 397 volume 0.52038745827326504667098561185412
  1 settings made for volume
set atom 397 mass 468.34871244593853134574601426720619
  1 settings made for mass
set atom 398 volume 0.51853923836298554395085602664039
  1 settings made for volume
set atom 398 mass 466.68531452668696601904230192303658
  1 settings made for mass
set atom 399 volume 0.52083484764594645266555517082452
  1 settings made for volume
set atom 399 mass 468.75136288135178119773627258837223
  1 settings made for mass
set atom 400 volume 0.52347293012990614435864245024277
  1 settings made for volume
set atom 400 mass 471.12563711691552725824294611811638
  1 settings made for mass
set atom 401 volume 0.52307886844888429322963929735124
  1 settings made for volume
set atom 401 mass 470.77098160399589232838479802012444
  1 settings made for mass
set atom 402 volume 0.53023202247293799160843263962306
  1 settings made for volume
set atom 402 mass 477.20882022564421731658512726426125
  1 settings made for mass
set atom 403 volume 0.52199599015564379644871451091603
  1 settings made for volume
set atom 403 mass 469.79639114007943589967908337712288
  1 settings made for mass
set atom 404 volume 0.51980516772445395368151821458014
  1 settings made for volume
set atom 404 mass 467.82465095200853966161957941949368
  1 settings made for mass
set atom 405 volume 0.51774645764776972001186550187413
  1 settings made for volume
set atom 405 mass 465.97181188299276755060418508946896
  1 settings made for mass
set atom 406 volume 0.52093394985709762234904474098585
  1 settings made for volume
set atom 406 mass 468.84055487138783746559056453406811
  1 settings made for mass
set atom 407 volume 0.52458294460327270503086083408562
  1 settings made for volume
set atom 407 mass 472.12465014294542697825818322598934
  1 settings made for mass
set atom 408 volume 0.51933105348249963828521913455916
  1 settings made for volume
set atom 408 mass 467.39794813424970243431744165718555
  1 settings made for mass
set atom 409 volume 0.52321584524429243234777686666348
  1 settings made for volume
set atom 409 mass 470.89426071986321176154888235032558
  1 settings made for mass
set atom 410 volume 0.53020259137848257946501462356537
  1 settings made for volume
set atom 410 mass 477.18233224063430952810449525713921
  1 settings made for mass
set atom 411 volume 0.52270886755714163207642286579357
  1 settings made for volume
set atom 411 mass 470.43798080142744311160640791058540
  1 settings made for mass
set atom 412 volume 0.52260795818552019387226437174832
  1 settings made for volume
set atom 412 mass 470.34716236696817759366240352392197
  1 settings made for mass
set atom 413 volume 0.52418803760995413831835776363732
  1 settings made for volume
set atom 413 mass 471.76923384895872004562988877296448
  1 settings made for mass
set atom 414 volume 0.52218381248494960544803689117543
  1 settings made for volume
set atom 414 mass 469.96543123645466266680159606039524
  1 settings made for mass
set atom 415 volume 0.52831911308614720734766478926758
  1 settings made for volume
set atom 415 mass 475.48720177753250482055591419339180
  1 settings made for mass
set atom 416 volume 0.51835460906193853158896445165738
  1 settings made for volume
set atom 416 mass 466.51914815574468775594141334295273
  1 settings made for mass
set atom 417 volume 0.52380124535579031253007542545674
  1 settings made for volume
set atom 417 mass 471.42112082021128571795998141169548
  1 settings made for mass
set atom 418 volume 0.51552871288111912217999588392559
  1 settings made for volume
set atom 418 mass 463.97584159300720330065814778208733
  1 settings made for mass
set atom 419 volume 0.52951591209326220877073865267448
  1 settings made for volume
set atom 419 mass 476.56432088393597723552375100553036
  1 settings made for mass
set atom 420 volume 0.52589819258375969379670777925639
  1 settings made for volume
set atom 420 mass 473.30837332538374084833776578307152
  1 settings made for mass
set atom 421 volume 0.52145784275432827126195434175315
  1 settings made for volume
set atom 421 mass 469.31205847889543747442075982689857
  1 settings made for mass
set atom 422 volume 0.52254986451013796244779996413854
  1 settings made for volume
set atom 422 mass 470.29487805912418707521283067762852
  1 settings made for mass
set atom 423 volume 0.52488060438169570343092118491768
  1 settings made for volume
set atom 423 mass 472.39254394352610688656568527221680
  1 settings made for mass
set atom 424 volume 0.52671423032044040191124167904491
  1 settings made for volume
set atom 424 mass 474.04280728839637504279380664229393
  1 settings made for mass
set atom 425 volume 0.51999846449214326415955156335258
  1 settings made for volume
set atom 425 mass 467.99861804292891065415460616350174
  1 settings made for mass
set atom 426 volume 0.52340771216757253636586710854317
  1 settings made for volume
set atom 426 mass 471.06694095081530804236535914242268
  1 settings made for mass
set atom 427 volume 0.52686508747585769629750984677230
  1 settings made for volume
set atom 427 mass 474.17857872827192977638333104550838
  1 settings made for mass
set atom 428 volume 0.52401083488255095765850910538575
  1 settings made for volume
set atom 428 mass 471.60975139429586988626397214829922
  1 settings made for mass
set atom 429 volume 0.52895799168439816551057219840004
  1 settings made for volume
set atom 429 mass 476.06219251595837249624310061335564
  1 settings made for mass
set atom 430 volume 0.51837189734476829539033815308358
  1 settings made for volume
set atom 430 mass 466.53470761029149116438929922878742
  1 settings made for mass
set atom 431 volume 0.52313630239364827811954228309332
  1 settings made for volume
set atom 431 mass 470.82267215428345252803410403430462
  1 settings made for mass
set atom 432 volume 0.52343749867351951898797324247425
  1 settings made for volume
set atom 432 mass 471.09374880616758218820905312895775
  1 settings made for mass
set atom 433 volume 0.52662428641705794074567847928847
  1 settings made for volume
set atom 433 mass 473.96185777535214356248616240918636
  1 settings made for mass
set atom 434 volume 0.53120049994821216809981478945701
  1 settings made for volume
set atom 434 mass 478.08044995339093929942464455962181
  1 settings made for mass
set atom 435 volume 0.51914459400895240914763917317032
  1 settings made for volume
set atom 435 mass 467.23013460805714203161187469959259
  1 settings made for mass
set atom 436 volume 0.52329560109910289167345354144345
  1 settings made for volume
set atom 436 mass 470.96604098919260650291107594966888
  1 settings made for mass
set atom 437 volume 0.52202525208356520547425816403120
  1 settings made for volume
set atom 437 mass 469.82272687520867293642368167638779
  1 settings made for mass
set atom 438 volume 0.52270716048268361930695391492918
  1 settings made for volume
set atom 438 mass 470.43644443441525027083116583526134
  1 settings made for mass
set atom 439 volume 0.52744670003972460303742764153867
  1 settings made for volume
set atom 439 mass 474.70203003575215916498564183712006
  1 settings made for mass
set atom 440 volume 0.52622582057702571578516881345422
  1 settings made for volume
set atom 440 mass 473.60323851932315619706059806048870
  1 settings made for mass
set atom 441 volume 0.52486453628356055656212220128509
  1 settings made for volume
set atom 441 mass 472.37808265520448003371711820363998
  1 settings made for mass
set atom 442 volume 0.52336181598676667636738102373783
  1 settings made for volume
set atom 442 mass 471.02563438808999762841267511248589
  1 settings made for mass
set atom 443 volume 0.52106160446249938367202503286535
  1 settings made for volume
set atom 443 mass 468.95544401624943020578939467668533
  1 settings made for mass
set atom 444 volume 0.52824440567930142087504918890772
  1 settings made for volume
set atom 444 mass 475.41996511137125480672693811357021
  1 settings made for mass
set atom 445 volume 0.52638973668538746597533872773056
  1 settings made for volume
set atom 445 mass 473.75076301684873669728403910994530
  1 settings made for mass
set atom 446 volume 0.52304793959461504115893148991745
  1 settings made for volume
set atom 446 mass 470.74314563515355303024989552795887
  1 settings made for mass
set atom 447 volume 0.52506111908536723387186384570668
  1 settings made for volume
set atom 447 mass 472.55500717683048605977091938257217
  1 settings made for mass
set atom 448 volume 0.51868688442838140062463025969919
  1 settings made for volume
set atom 448 mass 466.81819598554324102224200032651424
  1 settings made for mass
set atom 449 volume 0.52194472797454771750835789134726
  1 settings made for volume
set atom 449 mass 469.75025517709292444124002940952778
  1 settings made for mass
set atom 450 volume 0.51988814054884802118294828687795
  1 settings made for volume
set atom 450 mass 467.89932649396320130108506418764591
  1 settings made for mass
set atom 451 volume 0.52372124638705341848066154852859
  1 settings made for volume
set atom 451 mass 471.34912174834806819490040652453899
  1 settings made for mass
set atom 452 volume 0.52842989618878222213282924712985
  1 settings made for volume
set atom 452 mass 475.58690656990398792913765646517277
  1 settings made for mass
set atom 453 volume 0.51912021662910901032006449895562
  1 settings made for volume
set atom 453 mass 467.20819496619810706761199980974197
  1 settings made for mass
set atom 454 volume 0.52939337425192667385687173009501
  1 settings made for volume
set atom 454 mass 476.45403682673401135616586543619633
  1 settings made for mass
set atom 455 volume 0.52906513241950414716541217785561
  1 settings made for volume
set atom 455 mass 476.15861917755375998240197077393532
  1 settings made for mass
set atom 456 volume 0.52660068170350227134690612729173
  1 settings made for volume
set atom 456 mass 473.94061353315203177771763876080513
  1 settings made for mass
set atom 457 volume 0.51976547500284053793251359820715
  1 settings made for volume
set atom 457 mass 467.78892750255647570156725123524666
  1 settings made for mass
set atom 458 volume 0.52381654604767247107588445942383
  1 settings made for volume
set atom 458 mass 471.43489144290521153379813767969608
  1 settings made for mass
set atom 459 volume 0.52264866035350421302752010888071
  1 settings made for volume
set atom 459 mass 470.38379431815377529346733354032040
  1 settings made for mass
set atom 460 volume 0.52321165502756483700608214348904
  1 settings made for volume
set atom 460 mass 470.89048952480834486777894198894501
  1 settings made for mass
set atom 461 volume 0.52352918654918023655397973925574
  1 settings made for volume
set atom 461 mass 471.17626789426219602319179102778435
  1 settings made for mass
set atom 462 volume 0.52004577995754563968233696868992
  1 settings made for volume
set atom 462 mass 468.04120196179110280354507267475128
  1 settings made for mass
set atom 463 volume 0.52013368896854528244944049220067
  1 settings made for volume
set atom 463 mass 468.12032007169074176999856717884541
  1 settings made for mass
set atom 464 volume 0.51956975392435378324762496049516
  1 settings made for volume
set atom 464 mass 467.61277853191842268643085844814777
  1 settings made for mass
set atom 465 volume 0.52386321960198611868975149263861
  1 settings made for volume
set atom 465 mass 471.47689764178750237988424487411976
  1 settings made for mass
set atom 466 volume 0.52419065788059515664798482248443
  1 settings made for volume
set atom 466 mass 471.77159209253562721642083488404751
  1 settings made for mass
set atom 467 volume 0.52722715287815702378537707772921
  1 settings made for volume
set atom 467 mass 474.50443759034129698193282820284367
  1 settings made for mass
set atom 468 volume 0.52590469973355946642357139353408
  1 settings made for volume
set atom 468 mass 473.31422976020354553838842548429966
  1 settings made for mass
set atom 469 volume 0.52569360552761412730404799731332
  1 settings made for volume
set atom 469 mass 473.12424497485272922858712263405323
  1 settings made for mass
set atom 470 volume 0.52236547345388240071173413525685
  1 settings made for volume
set atom 470 mass 470.12892610849416996643412858247757
  1 settings made for mass
set atom 471 volume 0.52247284344958733193209354794817
  1 settings made for volume
set atom 471 mass 470.22555910462858719256473705172539
  1 settings made for mass
set atom 472 volume 0.52349315797150386408986832975643
  1 settings made for volume
set atom 472 mass 471.14384217435349455627147108316422
  1 settings made for mass
set atom 473 volume 0.52493952009274791326021158965887
  1 settings made for volume
set atom 473 mass 472.44556808347311971374438144266605
  1 settings made for mass
set atom 474 volume 0.52878812140823650000953648486757
  1 settings made for volume
set atom 474 mass 475.90930926741282291914103552699089
  1 settings made for mass
set atom 475 volume 0.52388206952439142494171164798900
  1 settings made for volume
set atom 475 mass 471.49386257195226335170445963740349
  1 settings made for mass
set atom 476 volume 0.52495034273183105444360307956231
  1 settings made for volume
set atom 476 mass 472.45530845864794855515356175601482
  1 settings made for mass
set atom 477 volume 0.52339948197486574343884058180265
  1 settings made for volume
set atom 477 mass 471.05953377737915843681548722088337
  1 settings made for mass
set atom 478 volume 0.52425609542552087383171510737156
  1 settings made for volume
set atom 478 mass 471.83048588296878733672201633453369
  1 settings made for mass
set atom 479 volume 0.52381096119576742164980487359571
  1 settings made for volume
set atom 479 mass 471.42986507619065150720416568219662
  1 settings made for mass
set atom 480 volume 0.52156690053548326879706564795924
  1 settings made for volume
set atom 480 mass 469.41021048193493925282382406294346
  1 settings made for mass
set atom 481 volume 0.52380051073456568300201752208523
  1 settings made for volume
set atom 481 mass 471.42045966110913468583021312952042
  1 settings made for mass
set atom 482 volume 0.52119539074732701422476566222031
  1 settings made for volume
set atom 482 mass 469.07585167259429681507754139602184
  1 settings made for mass
set atom 483 volume 0.52736376588764288797506196715403
  1 settings made for volume
set atom 483 mass 474.62738929887859740119893103837967
  1 settings made for mass
set atom 484 volume 0.52788436842902941581456843778142
  1 settings made for volume
set atom 484 mass 475.09593158612648267080658115446568
  1 settings made for mass
set atom 485 volume 0.52448904879294866443473210892989
  1 settings made for volume
set atom 485 mass 472.04014391365382152798702009022236
  1 settings made for mass
set atom 486 volume 0.52115047383131929414901151176309
  1 settings made for volume
set atom 486 mass 469.03542644818736562228878028690815
  1 settings made for mass
set atom 487 volume 0.52115625549269339877866968890885
  1 settings made for volume
set atom 487 mass 469.04062994342405090719694271683693
  1 settings made for mass
set atom 488 volume 0.52179104547145416237441395423957
  1 settings made for volume
set atom 488 mass 469.61194092430872615295811556279659
  1 settings made for mass
set atom 489 volume 0.52602768550119605173165382439038
  1 settings made for volume
set atom 489 mass 473.42491695107645455209421925246716
  1 settings made for mass
set atom 490 volume 0.52336713353227071188200625329046
  1 settings made for volume
set atom 490 mass 471.03042017904363092384301126003265
  1 settings made for mass
set atom 491 volume 0.52515983510910280163130892105983
  1 settings made for volume
set atom 491 mass 472.64385159819249793144990690052509
  1 settings made for mass
set atom 492 volume 0.52551832849858992613434338636580
  1 settings made for volume
set atom 492 mass 472.96649564873092685957089997828007
  1 settings made for mass
set atom 493 volume 0.52884630640883845131838825182058
  1 settings made for volume
set atom 493 mass 475.96167576795460263383574783802032
  1 settings made for mass
set atom 494 volume 0.52810487929280658381259172529099
  1 settings made for volume
set atom 494 mass 475.29439136352590367096127010881901
  1 settings made for mass
set atom 495 volume 0.52458910310289541545358815710642
  1 settings made for volume
set atom 495 mass 472.13019279260589655677904374897480
  1 settings made for mass
set atom 496 volume 0.52038733020177996291266708794865
  1 settings made for volume
set atom 496 mass 468.34859718160197417091694660484791
  1 settings made for mass
set atom 497 volume 0.52230237834636461524695505431737
  1 settings made for volume
set atom 497 mass 470.07214051172815061363507993519306
  1 settings made for mass
set atom 498 volume 0.52416073546640939984087026459747
  1 settings made for volume
set atom 498 mass 471.74466191976847539990558288991451
  1 settings made for mass
set atom 499 volume 0.52359462570803749770220747450367
  1 settings made for volume
set atom 499 mass 471.23516313723376924826879985630512
  1 settings made for mass
set atom 500 volume 0.52246817294664271713600101065822
  1 settings made for volume
set atom 500 mass 470.22135565197845608054194599390030
  1 settings made for mass
set atom 501 volume 0.52725788748026725105688683470362
  1 settings made for volume
set atom 501 mass 474.53209873224051307261106558144093
  1 settings made for mass
set atom 502 volume 0.52138210827762676569108180046896
  1 settings made for volume
set atom 502 mass 469.24389744986410732963122427463531
  1 settings made for mass
set atom 503 volume 0.52132264468979006011295496136881
  1 settings made for volume
set atom 503 mass 469.19038022081105054894578643143177
  1 settings made for mass
set atom 504 volume 0.52489106265628049374782904124004
  1 settings made for volume
set atom 504 mass 472.40195639065245813981164246797562
  1 settings made for mass
set atom 505 volume 0.52639539625625986207779760661651
  1 settings made for volume
set atom 505 mass 473.75585663063390029492438770830631
  1 settings made for mass
set atom 506 volume 0.51969219912875219691272832278628
  1 settings made for volume
set atom 506 mass 467.72297921587698965595336630940437
  1 settings made for mass
set atom 507 volume 0.52357385114805843340235469440813
  1 settings made for volume
set atom 507 mass 471.21646603325257274264004081487656
  1 settings made for mass
set atom 508 volume 0.52568982448330869861052860869677
  1 settings made for volume
set atom 508 mass 473.12084203497784073988441377878189
  1 settings made for mass
set atom 509 volume 0.52817107362364390521491941399290
  1 settings made for volume
set atom 509 mass 475.35396626127953823015559464693069
  1 settings made for mass
set atom 510 volume 0.51705429164416893961231380671961
  1 settings made for volume
set atom 510 mass 465.34886247975202877569245174527168
  1 settings made for mass
set atom 511 volume 0.52527249713370616213126140792156
  1 settings made for volume
set atom 511 mass 472.74524742033554502995684742927551
  1 settings made for mass
set atom 512 volume 0.52255703836437539244741401489591
  1 settings made for volume
set atom 512 mass 470.30133452793785409085103310644627
  1 settings made for mass
set atom 513 volume 0.52488429794143998119437810601084
  1 settings made for volume
set atom 513 mass 472.39586814729597108453162945806980
  1 settings made for mass
set atom 514 volume 0.52028865512635646961570046187262
  1 settings made for volume
set atom 514 mass 468.25978961372084086178801953792572
  1 settings made for mass
set atom 515 volume 0.52082832708383741682212075829739
  1 settings made for volume
set atom 515 mass 468.74549437545368846258497796952724
  1 settings made for mass
set atom 516 volume 0.52588699122253423912098924120073
  1 settings made for volume
set atom 516 mass 473.29829210028083252836950123310089
  1 settings made for mass
set atom 517 volume 0.51900991532672346995269663239014
  1 settings made for volume
set atom 517 mass 467.10892379405112251333775930106640
  1 settings made for mass
set atom 518 volume 0.52674858279208247591185454439255
  1 settings made for volume
set atom 518 mass 474.07372451287420744847622700035572
  1 settings made for mass
set atom 519 volume 0.52147712773693966070709393534344
  1 settings made for volume
set atom 519 mass 469.32941496324571062359609641134739
  1 settings made for mass
set atom 520 volume 0.52317044420481939592804110361612
  1 settings made for volume
set atom 520 mass 470.85339978433745500296936370432377
  1 settings made for mass
set atom 521 volume 0.52338894863943863366984032836626
  1 settings made for volume
set atom 521 mass 471.05005377549474587794975377619267
  1 settings made for mass
set atom 522 volume 0.52209843941765332608895278099226
  1 settings made for volume
set atom 522 mass 469.88859547588799614459276199340820
  1 settings made for mass
set atom 523 volume 0.52253293410601264756820683032856
  1 settings made for volume
set atom 523 mass 470.27964069541138769636745564639568
  1 settings made for mass
set atom 524 volume 0.52141998615102480574279297798057
  1 settings made for volume
set atom 524 mass 469.27798753592230696085607632994652
  1 settings made for mass
set atom 525 volume 0.52304218686228320933651048108004
  1 settings made for volume
set atom 525 mass 470.73796817605489195557311177253723
  1 settings made for mass
set atom 526 volume 0.52426991577477810579921424505301
  1 settings made for volume
set atom 526 mass 471.84292419730030587743385694921017
  1 settings made for mass
set atom 527 volume 0.52258096138085696757968889869517
  1 settings made for volume
set atom 527 mass 470.32286524277128592075314372777939
  1 settings made for mass
set atom 528 volume 0.52133585290124417888080188276945
  1 settings made for volume
set atom 528 mass 469.20226761111973701190436258912086
  1 settings made for mass
set atom 529 volume 0.52845653700675443431578059971798
  1 settings made for volume
set atom 529 mass 475.61088330607901752955513074994087
  1 settings made for mass
set atom 530 volume 0.52118952999923129354442608018871
  1 settings made for volume
set atom 530 mass 469.07057699930817307176766917109489
  1 settings made for mass
set atom 531 volume 0.52393118101448732382152684294851
  1 settings made for volume
set atom 531 mass 471.53806291303857278762734495103359
  1 settings made for mass
set atom 532 volume 0.52064419423471675063552766005159
  1 settings made for volume
set atom 532 mass 468.57977481124510177323827520012856
  1 settings made for mass
set atom 533 volume 0.52404272692398079502851260258467
  1 settings made for volume
set atom 533 mass 471.63845423158272751607000827789307
  1 settings made for mass
set atom 534 volume 0.52817932821447810542991874172003
  1 settings made for volume
set atom 534 mass 475.36139539303030687733553349971771
  1 settings made for mass
set atom 535 volume 0.52772661296951528520082774775801
  1 settings made for volume
set atom 535 mass 474.95395167256373269992764107882977
  1 settings made for mass
set atom 536 volume 0.52199269546083304494032972797868
  1 settings made for volume
set atom 536 mass 469.79342591474971868592547252774239
  1 settings made for mass
set atom 537 volume 0.52499501875868548328440965633490
  1 settings made for volume
set atom 537 mass 472.49551688281695760451839305460453
  1 settings made for mass
set atom 538 volume 0.52301025989597793586227680862066
  1 settings made for volume
set atom 538 mass 470.70923390638012051567784510552883
  1 settings made for mass
set atom 539 volume 0.52733303783127616348735955398297
  1 settings made for volume
set atom 539 mass 474.59973404814854802680201828479767
  1 settings made for mass
set atom 540 volume 0.52062016458223181469833207302145
  1 settings made for volume
set atom 540 mass 468.55814812400865321251330897212029
  1 settings made for mass
set atom 541 volume 0.52311143231448009593975712050451
  1 settings made for volume
set atom 541 mass 470.80028908303211210295557975769043
  1 settings made for mass
set atom 542 volume 0.51983608543528270207190189466928
  1 settings made for volume
set atom 542 mass 467.85247689175440655162674374878407
  1 settings made for mass
set atom 543 volume 0.52589779727639340833889036730397
  1 settings made for volume
set atom 543 mass 473.30801754875409415035392157733440
  1 settings made for mass
set atom 544 volume 0.52842064097540375477990437502740
  1 settings made for volume
set atom 544 mass 475.57857687786338374280603602528572
  1 settings made for mass
set atom 545 volume 0.51308636115173444913750699925004
  1 settings made for volume
set atom 545 mass 461.77772503656098024293896742165089
  1 settings made for mass
set atom 546 volume 0.52055454882337381938839371287031
  1 settings made for volume
set atom 546 mass 468.49909394103644899587379768490791
  1 settings made for mass
set atom 547 volume 0.52307670807975958915392311610049
  1 settings made for volume
set atom 547 mass 470.76903727178364533756393939256668
  1 settings made for mass
set atom 548 volume 0.52291877330190383865726744261337
  1 settings made for volume
set atom 548 mass 470.62689597171345212700543925166130
  1 settings made for mass
set atom 549 volume 0.51960872035069516350347385014175
  1 settings made for volume
set atom 549 mass 467.64784831562565159401856362819672
  1 settings made for mass
set atom 550 volume 0.52391162887966635786085589643335
  1 settings made for volume
set atom 550 mass 471.52046599169972296294872649013996
  1 settings made for mass
set atom 551 volume 0.51993525589507461059923798529780
  1 settings made for volume
set atom 551 mass 467.94173030556714820704655721783638
  1 settings made for mass
set atom 552 volume 0.52352246912953315227667872022721
  1 settings made for volume
set atom 552 mass 471.17022221657981617681798525154591
  1 settings made for mass
set atom 553 volume 0.52461079849329794733137077855645
  1 settings made for volume
set atom 553 mass 472.14971864396812861741636879742146
  1 settings made for mass
set atom 554 volume 0.52168274798717662044111875729868
  1 settings made for volume
set atom 554 mass 469.51447318845896461425581946969032
  1 settings made for mass
set atom 555 volume 0.52064702572886256692896722597652
  1 settings made for volume
set atom 555 mass 468.58232315597632577919284813106060
  1 settings made for mass
set atom 556 volume 0.51728849992866587914619458388188
  1 settings made for volume
set atom 556 mass 465.55964993579931388012482784688473
  1 settings made for mass
set atom 557 volume 0.52544986262090720430251167272218
  1 settings made for volume
set atom 557 mass 472.90487635881646610869211144745350
  1 settings made for mass
set atom 558 volume 0.52122371790610588782044487743406
  1 settings made for volume
set atom 558 mass 469.10134611549528926843777298927307
  1 settings made for mass
set atom 559 volume 0.52270606727003210423276868823450
  1 settings made for volume
set atom 559 mass 470.43546054302890979670337401330471
  1 settings made for mass
set atom 560 volume 0.52243453161158659447949048626469
  1 settings made for volume
set atom 560 mass 470.19107845042793769607669673860073
  1 settings made for mass
set atom 561 volume 0.52212338763022025922566626832122
  1 settings made for volume
set atom 561 mass 469.91104886719824662577593699097633
  1 settings made for mass
set atom 562 volume 0.52791835442842105496907834094600
  1 settings made for volume
set atom 562 mass 475.12651898557896856800653040409088
  1 settings made for mass
set atom 563 volume 0.52486492088704173042401635029819
  1 settings made for volume
set atom 563 mass 472.37842879833755205254419706761837
  1 settings made for mass
set atom 564 volume 0.52534554892476736931428149546264
  1 settings made for volume
set atom 564 mass 472.81099403229063682374544441699982
  1 settings made for mass
set atom 565 volume 0.53174001566398976237337592465337
  1 settings made for volume
set atom 565 mass 478.56601409759076659611309878528118
  1 settings made for mass
set atom 566 volume 0.52073576884818395527076972939540
  1 settings made for volume
set atom 566 mass 468.66219196336555796733591705560684
  1 settings made for mass
set atom 567 volume 0.52829820695075457859246625957894
  1 settings made for volume
set atom 567 mass 475.46838625567909275559941306710243
  1 settings made for mass
set atom 568 volume 0.52102277698551524576231486207689
  1 settings made for volume
set atom 568 mass 468.92049928696371807745890691876411
  1 settings made for mass
set atom 569 volume 0.52473216573299197307278518564999
  1 settings made for volume
set atom 569 mass 472.25894915969274734379723668098450
  1 settings made for mass
set atom 570 volume 0.51965575691973919791877278839820
  1 settings made for volume
set atom 570 mass 467.69018122776526524830842390656471
  1 settings made for mass
set atom 571 volume 0.52458932516460277106773446575971
  1 settings made for volume
set atom 571 mass 472.13039264814250373092363588511944
  1 settings made for mass
set atom 572 volume 0.52464474567982277708466654075892
  1 settings made for volume
set atom 572 mass 472.18027111184051136660855263471603
  1 settings made for mass
set atom 573 volume 0.52400344099248274964963911770610
  1 settings made for volume
set atom 573 mass 471.60309689323446491471258923411369
  1 settings made for mass
set atom 574 volume 0.52541966176766519147633971442701
  1 settings made for volume
set atom 574 mass 472.87769559089866788781364448368549
  1 settings made for mass
set atom 575 volume 0.52480573972518229641792686379631
  1 settings made for volume
set atom 575 mass 472.32516575266407699018600396811962
  1 settings made for mass
set atom 576 volume 0.52439810426637145646111548558110
  1 settings made for volume
set atom 576 mass 471.95829383973432413768023252487183
  1 settings made for mass
set atom 577 volume 0.52666009083174480931432981378748
  1 settings made for volume
set atom 577 mass 473.99408174857035191962495446205139
  1 settings made for mass
set atom 578 volume 0.52643345415644704488045135803986
  1 settings made for volume
set atom 578 mass 473.79010874080233861604938283562660
  1 settings made for mass
set atom 579 volume 0.52546481730011307398342523811152
  1 settings made for volume
set atom 579 mass 472.91833557010176036783377639949322
  1 settings made for mass
set atom 580 volume 0.51678672853319851387965400135727
  1 settings made for volume
set atom 580 mass 465.10805567987864606038783676922321
  1 settings made for mass
set atom 581 volume 0.52308177091159846483492401603144
  1 settings made for volume
set atom 581 mass 470.77359382043863433864316903054714
  1 settings made for mass
set atom 582 volume 0.52553863502289899223285374318948
  1 settings made for volume
set atom 582 mass 472.98477152060911521402886137366295
  1 settings made for mass
set atom 583 volume 0.52787469780008566822004922869382
  1 settings made for volume
set atom 583 mass 475.08722802007707741722697392106056
  1 settings made for mass
set atom 584 volume 0.51988588010743486123033108015079
  1 settings made for volume
set atom 584 mass 467.89729209669138754179584793746471
  1 settings made for mass
set atom 585 volume 0.52422593200893830012176977106719
  1 settings made for volume
set atom 585 mass 471.80333880804448654089355841279030
  1 settings made for mass
set atom 586 volume 0.52478898305295740289722061788780
  1 settings made for volume
set atom 586 mass 472.31008474766167637426406145095825
  1 settings made for mass
set atom 587 volume 0.52654045686602424236610886509879
  1 settings made for volume
set atom 587 mass 473.88641117942182745537138544023037
  1 settings made for mass
set atom 588 volume 0.52132041122877115224554245287436
  1 settings made for volume
set atom 588 mass 469.18837010589402325422270223498344
  1 settings made for mass
set atom 589 volume 0.52508616177464617624792708738823
  1 settings made for volume
set atom 589 mass 472.57754559718154041547677479684353
  1 settings made for mass
set atom 590 volume 0.52177583293204443659618618767126
  1 settings made for volume
set atom 590 mass 469.59824963884000226244097575545311
  1 settings made for mass
set atom 591 volume 0.52829257920184202745872426021378
  1 settings made for volume
set atom 591 mass 475.46332128165784070006338879466057
  1 settings made for mass
set atom 592 volume 0.52400598905806861083078729279805
  1 settings made for volume
set atom 592 mass 471.60539015226174797135172411799431
  1 settings made for mass
set atom 593 volume 0.52337496118142112777604779694229
  1 settings made for volume
set atom 593 mass 471.03746506327900078758830204606056
  1 settings made for mass
set atom 594 volume 0.51877821364063325670912263376522
  1 settings made for volume
set atom 594 mass 466.90039227656990306059014983475208
  1 settings made for mass
set atom 595 volume 0.52023706896849497560708641685778
  1 settings made for volume
set atom 595 mass 468.21336207164546294734464026987553
  1 settings made for mass
set atom 596 volume 0.52292438892844184117336681083543
  1 settings made for volume
set atom 596 mass 470.63195003559764018064015544950962
  1 settings made for mass
set atom 597 volume 0.52604428605464581547579427933670
  1 settings made for volume
set atom 597 mass 473.43985744918126101765665225684643
  1 settings made for mass
set atom 598 volume 0.52502628353907609959350111239473
  1 settings made for volume
set atom 598 mass 472.52365518516847942009917460381985
  1 settings made for mass
set atom 599 volume 0.52539192144669077944030277649290
  1 settings made for volume
set atom 599 mass 472.85272930202171437485958449542522
  1 settings made for mass
set atom 600 volume 0.51785160326560719656896480955766
  1 settings made for volume
set atom 600 mass 466.06644293904645337534020654857159
  1 settings made for mass
set atom 601 volume 0.52127912518934860219843585582566
  1 settings made for volume
set atom 601 mass 469.15121267041376995621249079704285
  1 settings made for mass
set atom 602 volume 0.52130600421504791341931195347570
  1 settings made for volume
set atom 602 mass 469.17540379354312563009443692862988
  1 settings made for mass
set atom 603 volume 0.52904863873978646982010332067148
  1 settings made for volume
set atom 603 mass 476.14377486580781351221958175301552
  1 settings made for mass
set atom 604 volume 0.51384315268568114820624259664328
  1 settings made for volume
set atom 604 mass 462.45883741711304537602700293064117
  1 settings made for mass
set atom 605 volume 0.52486859359717519257770845797495
  1 settings made for volume
set atom 605 mass 472.38173423745769241577363573014736
  1 settings made for mass
set atom 606 volume 0.51551658232465680242739836103283
  1 settings made for volume
set atom 606 mass 463.96492409219109731566277332603931
  1 settings made for mass
set atom 607 volume 0.52812872400928223548532969289226
  1 settings made for volume
set atom 607 mass 475.31585160835402348311617970466614
  1 settings made for mass
set atom 608 volume 0.52663447457472067902983781095827
  1 settings made for volume
set atom 608 mass 473.97102711724863866038504056632519
  1 settings made for mass
set atom 609 volume 0.52550527128682433808393170693307
  1 settings made for volume
set atom 609 mass 472.95474415814192070683930069208145
  1 settings made for mass
set atom 610 volume 0.52579336002546395167911441603792
  1 settings made for volume
set atom 610 mass 473.21402402291755606711376458406448
  1 settings made for mass
set atom 611 volume 0.52540943259646566421139368685544
  1 settings made for volume
set atom 611 mass 472.86848933681909556980826891958714
  1 settings made for mass
set atom 612 volume 0.52355644371946641335568983777193
  1 settings made for volume
set atom 612 mass 471.20079934751976225015823729336262
  1 settings made for mass
set atom 613 volume 0.52505321389179449020900847244775
  1 settings made for volume
set atom 613 mass 472.54789250261501365457661449909210
  1 settings made for mass
set atom 614 volume 0.52326726573284287891141275395057
  1 settings made for volume
set atom 614 mass 470.94053915955856837172177620232105
  1 settings made for mass
set atom 615 volume 0.52308225005973119081659206131008
  1 settings made for volume
set atom 615 mass 470.77402505375806640586233697831631
  1 settings made for mass
set atom 616 volume 0.52037321902281696850423031719401
  1 settings made for volume
set atom 616 mass 468.33589712053526454837992787361145
  1 settings made for mass
set atom 617 volume 0.52242931374505519048767610001960
  1 settings made for volume
set atom 617 mass 470.18638237054966566574876196682453
  1 settings made for mass
set atom 618 volume 0.52062640169434326598008055952960
  1 settings made for volume
set atom 618 mass 468.56376152490895492519484832882881
  1 settings made for mass
set atom 619 volume 0.52465512530890445752618234109832
  1 settings made for volume
set atom 619 mass 472.18961277801400910902884788811207
  1 settings made for mass
set atom 620 volume 0.52030259516042220990783562228899
  1 settings made for volume
set atom 620 mass 468.27233564438000712470966391265392
  1 settings made for mass
set atom 621 volume 0.52829079276978163637323859802564
  1 settings made for volume
set atom 621 mass 475.46171349280348294996656477451324
  1 settings made for mass
set atom 622 volume 0.52466132560353173630574019625783
  1 settings made for volume
set atom 622 mass 472.19519304317856267516617663204670
  1 settings made for mass
set atom 623 volume 0.52547549207166388551826230468578
  1 settings made for volume
set atom 623 mass 472.92794286449748142331372946500778
  1 settings made for mass
set atom 624 volume 0.52776514916818839662226992004435
  1 settings made for volume
set atom 624 mass 474.98863425136954674599110148847103
  1 settings made for mass
set atom 625 volume 0.52100644495332704142498414512374
  1 settings made for volume
set atom 625 mass 468.90580045799435993103543296456337
  1 settings made for mass
set atom 626 volume 0.52373654417066251021140033117263
  1 settings made for volume
set atom 626 mass 471.36288975359627784200711175799370
  1 settings made for mass
set atom 627 volume 0.52352081687100637807930070266593
  1 settings made for volume
set atom 627 mass 471.16873518390576691672322340309620
  1 settings made for mass
set atom 628 volume 0.52698367240814825152028788579628
  1 settings made for volume
set atom 628 mass 474.28530516733343347368645481765270
  1 settings made for mass
set atom 629 volume 0.52434472795244502218992010966758
  1 settings made for volume
set atom 629 mass 471.91025515720053817858570255339146
  1 settings made for mass
set atom 630 volume 0.52046236678729596025760884003830
  1 settings made for volume
set atom 630 mass 468.41613010856639220946817658841610
  1 settings made for mass
set atom 631 volume 0.51927124344690867019380675628781
  1 settings made for volume
set atom 631 mass 467.34411910221780317442608065903187
  1 settings made for mass
set atom 632 volume 0.52782053682860030630052960987086
  1 settings made for volume
set atom 632 mass 475.03848314574025835099746473133564
  1 settings made for mass
set atom 633 volume 0.52697191500814433151589355475153
  1 settings made for volume
set atom 633 mass 474.27472350732989525567973032593727
  1 settings made for mass
set atom 634 volume 0.51606169413762170705695098149590
  1 settings made for volume
set atom 634 mass 464.45552472385952569311484694480896
  1 settings made for mass
set atom 635 volume 0.52729489453429445600107783320709
  1 settings made for volume
set atom 635 mass 474.56540508086499130513402633368969
  1 settings made for mass
set atom 636 volume 0.52337370499331969941891884445795
  1 settings made for volume
set atom 636 mass 471.03633449398773791472194716334343
  1 settings made for mass
set atom 637 volume 0.52475774655620610609219056641450
  1 settings made for volume
set atom 637 mass 472.28197190058551768743200227618217
  1 settings made for mass
set atom 638 volume 0.52717399654656582619338678341592
  1 settings made for volume
set atom 638 mass 474.45659689190927110757911577820778
  1 settings made for mass
set atom 639 volume 0.52106135014947896344494893128285
  1 settings made for volume
set atom 639 mass 468.95521513453104489599354565143585
  1 settings made for mass
set atom 640 volume 0.52207826051974071113193076598691
  1 settings made for volume
set atom 640 mass 469.87043446776664268327294848859310
  1 settings made for mass
set atom 641 volume 0.52412043552598341911163970507914
  1 settings made for volume
set atom 641 mass 471.70839197338506210144259966909885
  1 settings made for mass
set atom 642 volume 0.52800071193077791065206838538870
  1 settings made for volume
set atom 642 mass 475.20064073770009827057947404682636
  1 settings made for mass
set atom 643 volume 0.52180298189014906462546150578419
  1 settings made for volume
set atom 643 mass 469.62268370113417859101900830864906
  1 settings made for mass
set atom 644 volume 0.52520301219690312954924138466595
  1 settings made for volume
set atom 644 mass 472.68271097721282103520934469997883
  1 settings made for mass
set atom 645 volume 0.52337505610209911210972677508835
  1 settings made for volume
set atom 645 mass 471.03755049188919201696990057826042
  1 settings made for mass
set atom 646 volume 0.52277984224025686454950800907682
  1 settings made for volume
set atom 646 mass 470.50185801623115366965066641569138
  1 settings made for mass
set atom 647 volume 0.51946967291569789981764415642829
  1 settings made for volume
set atom 647 mass 467.52270562412809340457897633314133
  1 settings made for mass
set atom 648 volume 0.52543324772182142812226857131463
  1 settings made for volume
set atom 648 mass 472.88992294963929907680721953511238
  1 settings made for mass
set atom 649 volume 0.52159334021406766890294193217414
  1 settings made for volume
set atom 649 mass 469.43400619266088824588223360478878
  1 settings made for mass
set atom 650 volume 0.52389618126268211462104318343336
  1 settings made for volume
set atom 650 mass 471.50656313641388805990573018789291
  1 settings made for mass
set atom 651 volume 0.52698790699183395425109210918890
  1 settings made for volume
set atom 651 mass 474.28911629265053306880872696638107
  1 settings made for mass
set atom 652 volume 0.52260811879492174991668207439943
  1 settings made for volume
set atom 652 mass 470.34730691542955582917784340679646
  1 settings made for mass
set atom 653 volume 0.52623042797340680021278558342601
  1 settings made for volume
set atom 653 mass 473.60738517606614550459198653697968
  1 settings made for mass
set atom 654 volume 0.52504518974176916934482051146915
  1 settings made for volume
set atom 654 mass 472.54067076759224619308952242136002
  1 settings made for mass
set atom 655 volume 0.52072757621873388966804441224667
  1 settings made for volume
set atom 655 mass 468.65481859686047982904710806906223
  1 settings made for mass
set atom 656 volume 0.52489759149673975713312756852247
  1 settings made for volume
set atom 656 mass 472.40783234706577786710113286972046
  1 settings made for mass
set atom 657 volume 0.52153518372642104772296534065390
  1 settings made for volume
set atom 657 mass 469.38166535377894206249038688838482
  1 settings made for mass
set atom 658 volume 0.52261878777509607196805063722422
  1 settings made for volume
set atom 658 mass 470.35690899758645855399663560092449
  1 settings made for mass
set atom 659 volume 0.52843135142717534424861014485941
  1 settings made for volume
set atom 659 mass 475.58821628445781470873043872416019
  1 settings made for mass
set atom 660 volume 0.51967889767130170941555888930452
  1 settings made for volume
set atom 660 mass 467.71100790417153802991379052400589
  1 settings made for mass
set atom 661 volume 0.52558301159163045568334382551257
  1 settings made for volume
set atom 661 mass 473.02471043246742965493467636406422
  1 settings made for mass
set atom 662 volume 0.52297558076914385516431593714515
  1 settings made for volume
set atom 662 mass 470.67802269222949007598799653351307
  1 settings made for mass
set atom 663 volume 0.52185239976953090579314675778733
  1 settings made for volume
set atom 663 mass 469.66715979257782009881339035928249
  1 settings made for mass
set atom 664 volume 0.52176014908629675392859326166217
  1 settings made for volume
set atom 664 mass 469.58413417766706743350368924438953
  1 settings made for mass
set atom 665 volume 0.52920198838756637993441245271242
  1 settings made for volume
set atom 665 mass 476.28178954880974060870357789099216
  1 settings made for mass
set atom 666 volume 0.52456693563404643843028907213011
  1 settings made for volume
set atom 666 mass 472.11024207064178881410043686628342
  1 settings made for mass
set atom 667 volume 0.51980028462806671107898637274047
  1 settings made for volume
set atom 667 mass 467.82025616526004796469351276755333
  1 settings made for mass
set atom 668 volume 0.52486934605467150394275677172118
  1 settings made for volume
set atom 668 mass 472.38241144920436909160343930125237
  1 settings made for mass
set atom 669 volume 0.52202989613494243936742122969008
  1 settings made for volume
set atom 669 mass 469.82690652144822252012090757489204
  1 settings made for mass
set atom 670 volume 0.52463484289514605851678652470582
  1 settings made for volume
set atom 670 mass 472.17135860563143978652078658342361
  1 settings made for mass
set atom 671 volume 0.52384839730320620354575567034772
  1 settings made for volume
set atom 671 mass 471.46355757288557697393116541206837
  1 settings made for mass
set atom 672 volume 0.52099363441612234204569631401682
  1 settings made for volume
set atom 672 mass 468.89427097451010695294826291501522
  1 settings made for mass
set atom 673 volume 0.53071341587634757175351296609733
  1 settings made for volume
set atom 673 mass 477.64207428871281990723218768835068
  1 settings made for mass
set atom 674 volume 0.52715473586179084630742863737396
  1 settings made for volume
set atom 674 mass 474.43926227561178166070021688938141
  1 settings made for mass
set atom 675 volume 0.53126449933410513359888227569172
  1 settings made for volume
set atom 675 mass 478.13804940069462645624298602342606
  1 settings made for mass
set atom 676 volume 0.52286534323787636768798847697326
  1 settings made for volume
set atom 676 mass 470.57880891408871093517518602311611
  1 settings made for mass
set atom 677 volume 0.52038887075396611514577216439648
  1 settings made for volume
set atom 677 mass 468.34998367856951517751440405845642
  1 settings made for mass
set atom 678 volume 0.52101777842125496231773240651819
  1 settings made for volume
set atom 678 mass 468.91600057912944521376630291342735
  1 settings made for mass
set atom 679 volume 0.51196192734641576826959408208495
  1 settings made for volume
set atom 679 mass 460.76573461177417811995837837457657
  1 settings made for mass
set atom 680 volume 0.52057598206261079809564762399532
  1 settings made for volume
set atom 680 mass 468.51838385634971473336918279528618
  1 settings made for mass
set atom 681 volume 0.52482207785823420387316673441092
  1 settings made for volume
set atom 681 mass 472.33987007241080391395371407270432
  1 settings made for mass
set atom 682 volume 0.52223669823265328471251223163563
  1 settings made for volume
set atom 682 mass 470.01302840938797089620493352413177
  1 settings made for mass
set atom 683 volume 0.52245775757127510541266701693530
  1 settings made for volume
set atom 683 mass 470.21198181414757755192113108932972
  1 settings made for mass
set atom 684 volume 0.52371007011983139456390290433774
  1 settings made for volume
set atom 684 mass 471.33906310784823290305212140083313
  1 settings made for mass
set atom 685 volume 0.51819954792216482708511193777667
  1 settings made for volume
set atom 685 mass 466.37959312994831861942657269537449
  1 settings made for mass
set atom 686 volume 0.52221933515528384806003714402323
  1 settings made for volume
set atom 686 mass 469.99740163975548057351261377334595
  1 settings made for mass
set atom 687 volume 0.52739298139714629876095841609640
  1 settings made for volume
set atom 687 mass 474.65368325743168043118203058838844
  1 settings made for mass
set atom 688 volume 0.52459236585384638740237051024451
  1 settings made for volume
set atom 688 mass 472.13312926846174377715215086936951
  1 settings made for mass
set atom 689 volume 0.52121281129571173096337588503957
  1 settings made for volume
set atom 689 mass 469.09153016614055786703829653561115
  1 settings made for mass
set atom 690 volume 0.52644005491926981754602365981555
  1 settings made for volume
set atom 690 mass 473.79604942734283667959971353411674
  1 settings made for mass
set atom 691 volume 0.52476017229189142465628492573160
  1 settings made for volume
set atom 691 mass 472.28415506270226842389092780649662
  1 settings made for mass
set atom 692 volume 0.51566698499709962000281393557088
  1 settings made for volume
set atom 692 mass 464.10028649738967487792251631617546
  1 settings made for mass
set atom 693 volume 0.52791618199164935809619692008710
  1 settings made for volume
set atom 693 mass 475.12456379248442317475564777851105
  1 settings made for mass
set atom 694 volume 0.52538643614657898339714847679716
  1 settings made for volume
set atom 694 mass 472.84779253192107262293575331568718
  1 settings made for mass
set atom 695 volume 0.52437726138564211275649995513959
  1 settings made for volume
set atom 695 mass 471.93953524707791302716941572725773
  1 settings made for mass
set atom 696 volume 0.52278817970491131550403451910825
  1 settings made for volume
set atom 696 mass 470.50936173442016752233030274510384
  1 settings made for mass
set atom 697 volume 0.51885987361785901317290381484781
  1 settings made for volume
set atom 697 mass 466.97388625607311496423790231347084
  1 settings made for mass
set atom 698 volume 0.52489983810255469443006859364687
  1 settings made for volume
set atom 698 mass 472.40985429229920100624440237879753
  1 settings made for mass
set atom 699 volume 0.52555841541170922326386971690226
  1 settings made for volume
set atom 699 mass 473.00257387053829916112590581178665
  1 settings made for mass
set atom 700 volume 0.52521951943496081316453683029977
  1 settings made for volume
set atom 700 mass 472.69756749146472429856657981872559
  1 settings made for mass
set atom 701 volume 0.52292064767415280535090005287202
  1 settings made for volume
set atom 701 mass 470.62858290673750616406323388218880
  1 settings made for mass
set atom 702 volume 0.52344228434915152092798962257802
  1 settings made for volume
set atom 702 mass 471.09805591423639725690009072422981
  1 settings made for mass
set atom 703 volume 0.52220609523562866449708508298500
  1 settings made for volume
set atom 703 mass 469.98548571206578117198660038411617
  1 settings made for mass
set atom 704 volume 0.52247129757834076535516487638233
  1 settings made for volume
set atom 704 mass 470.22416782050669326054048724472523
  1 settings made for mass
set atom 705 volume 0.52657268538094603727017783967312
  1 settings made for volume
set atom 705 mass 473.91541684285141400323482230305672
  1 settings made for mass
set atom 706 volume 0.52064621891609641490816784425988
  1 settings made for volume
set atom 706 mass 468.58159702448676853236975148320198
  1 settings made for mass
set atom 707 volume 0.52768598280215461837627799468464
  1 settings made for volume
set atom 707 mass 474.91738452193914099552785046398640
  1 settings made for mass
set atom 708 volume 0.52482875178733667809183316421695
  1 settings made for volume
set atom 708 mass 472.34587660860302094079088419675827
  1 settings made for mass
set atom 709 volume 0.52370465768162366426707876598812
  1 settings made for volume
set atom 709 mass 471.33419191346132492981269024312496
  1 settings made for mass
set atom 710 volume 0.52399969197629692185813610194600
  1 settings made for volume
set atom 710 mass 471.59972277866722834005486220121384
  1 settings made for mass
set atom 711 volume 0.51981350222348132739114134892588
  1 settings made for volume
set atom 711 mass 467.83215200113318132935091853141785
  1 settings made for mass
set atom 712 volume 0.52228716312215062167467749532079
  1 settings made for volume
set atom 712 mass 470.05844680993556039538816548883915
  1 settings made for mass
set atom 713 volume 0.52202999623899060122056425825576
  1 settings made for volume
set atom 713 mass 469.82699661509155930616543628275394
  1 settings made for mass
set atom 714 volume 0.52632641541667146700689272620366
  1 settings made for volume
set atom 714 mass 473.69377387500429676947533152997494
  1 settings made for mass
set atom 715 volume 0.52043276546874506216511235834332
  1 settings made for volume
set atom 715 mass 468.38948892187056571856373921036720
  1 settings made for mass
set atom 716 volume 0.52679267031407805976783720325329
  1 settings made for volume
set atom 716 mass 474.11340328267027643960318528115749
  1 settings made for mass
set atom 717 volume 0.52326148483403134292757385992445
  1 settings made for volume
set atom 717 mass 470.93533635062823350381222553551197
  1 settings made for mass
set atom 718 volume 0.52439857087766261756200947274920
  1 settings made for volume
set atom 718 mass 471.95871378989636468759272247552872
  1 settings made for mass
set atom 719 volume 0.52370684708141101992850963142700
  1 settings made for volume
set atom 719 mass 471.33616237326992859379970468580723
  1 settings made for mass
set atom 720 volume 0.51945550164215126276445744224475
  1 settings made for volume
set atom 720 mass 467.50995147793611295128357596695423
  1 settings made for mass
set atom 721 volume 0.52296731891693348792671258706832
  1 settings made for volume
set atom 721 mass 470.67058702524013824586290866136551
  1 settings made for mass
set atom 722 volume 0.51793791274859013462616985634668
  1 settings made for volume
set atom 722 mass 466.14412147373110428816289640963078
  1 settings made for mass
set atom 723 volume 0.52762517701355959864883971022209
  1 settings made for volume
set atom 723 mass 474.86265931220361835585208609700203
  1 settings made for mass
set atom 724 volume 0.52092743462699619971800757411984
  1 settings made for volume
set atom 724 mass 468.83469116429660061839967966079712
  1 settings made for mass
set atom 725 volume 0.52309782839243668117745755807846
  1 settings made for volume
set atom 725 mass 470.78804555319300106930313631892204
  1 settings made for mass
set atom 726 volume 0.52645317077529618643438880098984
  1 settings made for volume
set atom 726 mass 473.80785369776657489637727849185467
  1 settings made for mass
set atom 727 volume 0.52317415119572729942376554390648
  1 settings made for volume
set atom 727 mass 470.85673607615456148778321221470833
  1 settings made for mass
set atom 728 volume 0.52247549820993921532163994925213
  1 settings made for volume
set atom 728 mass 470.22794838894532176709617488086224
  1 settings made for mass
set atom 729 volume 0.52437609131516249583171429549111
  1 settings made for volume
set atom 729 mass 471.93848218364627200571703724563122
  1 settings made for mass
set atom 730 volume 0.52424241285161299330752626701724
  1 settings made for volume
set atom 730 mass 471.81817156645166733142104931175709
  1 settings made for mass
set atom 731 volume 0.52121662151881786861906675767386
  1 settings made for volume
set atom 731 mass 469.09495936693610929069109261035919
  1 settings made for mass
set atom 732 volume 0.52503805501372047270791654227651
  1 settings made for volume
set atom 732 mass 472.53424951234842410485725849866867
  1 settings made for mass
set atom 733 volume 0.52297711162201454548892343154876
  1 settings made for volume
set atom 733 mass 470.67940045981310959177790209650993
  1 settings made for mass
set atom 734 volume 0.52201833252725526879345352426753
  1 settings made for volume
set atom 734 mass 469.81649927452974679908948019146919
  1 settings made for mass
set atom 735 volume 0.52349404672028077012413405100233
  1 settings made for volume
set atom 735 mass 471.14464204825270599030773155391216
  1 settings made for mass
set atom 736 volume 0.52077000989334965019850187673001
  1 settings made for volume
set atom 736 mass 468.69300890401467540868907235562801
  1 settings made for mass
set atom 737 volume 0.53181137152755864061504098572186
  1 settings made for volume
set atom 737 mass 478.63023437480279653755133040249348
  1 settings made for mass
set atom 738 volume 0.52180953475500591043356735099223
  1 settings made for volume
set atom 738 mass 469.62858127950534026240347884595394
  1 settings made for mass
set atom 739 volume 0.52518698731126600698360107344342
  1 settings made for volume
set atom 739 mass 472.66828858013940362070570699870586
  1 settings made for mass
set atom 740 volume 0.52812035655618216889450877715717
  1 settings made for volume
set atom 740 mass 475.30832090056395600186078809201717
  1 settings made for mass
set atom 741 volume 0.52508560159732631245077527637477
  1 settings made for volume
set atom 741 mass 472.57704143759366388621856458485126
  1 settings made for mass
set atom 742 volume 0.52368779843490798064919999887934
  1 settings made for volume
set atom 742 mass 471.31901859141720478874049149453640
  1 settings made for mass
set atom 743 volume 0.52357840930526111655751719808904
  1 settings made for volume
set atom 743 mass 471.22056837473502355351229198276997
  1 settings made for mass
set atom 744 volume 0.51660320713479523924149816593854
  1 settings made for volume
set atom 744 mass 464.94288642131573396909516304731369
  1 settings made for mass
set atom 745 volume 0.52036524609653378448115290666465
  1 settings made for volume
set atom 745 mass 468.32872148688039715125341899693012
  1 settings made for mass
set atom 746 volume 0.52324738034277862297471983765718
  1 settings made for volume
set atom 746 mass 470.92264230850076955903205089271069
  1 settings made for mass
set atom 747 volume 0.52280060974822684105589587488794
  1 settings made for volume
set atom 747 mass 470.52054877340412986086448654532433
  1 settings made for mass
set atom 748 volume 0.52538906605335122801392344626947
  1 settings made for volume
set atom 748 mass 472.85015944801608611669507808983326
  1 settings made for mass
set atom 749 volume 0.52053820218789748075494117074413
  1 settings made for volume
set atom 749 mass 468.48438196910774422576650977134705
  1 settings made for mass
set atom 750 volume 0.53196611421411610365339583950117
  1 settings made for volume
set atom 750 mass 478.76950279270448618262889795005322
  1 settings made for mass
set atom 751 volume 0.52015806486915361350753528313362
  1 settings made for volume
set atom 751 mass 468.14225838223825348904938437044621
  1 settings made for mass
set atom 752 volume 0.52350976461223108771037004771642
  1 settings made for volume
set atom 752 mass 471.15878815100796828119200654327869
  1 settings made for mass
set atom 753 volume 0.52499285408598450608508301229449
  1 settings made for volume
set atom 753 mass 472.49356867738606524653732776641846
  1 settings made for mass
set atom 754 volume 0.51980956755333351804182484556804
  1 settings made for volume
set atom 754 mass 467.82861079800017023444524966180325
  1 settings made for mass
set atom 755 volume 0.52386760739365256789312752516707
  1 settings made for volume
set atom 755 mass 471.48084665428729067571111954748631
  1 settings made for mass
set atom 756 volume 0.52450937559849464264516427647322
  1 settings made for volume
set atom 756 mass 472.05843803864519259150256402790546
  1 settings made for mass
set atom 757 volume 0.52265484089622671337593828866375
  1 settings made for volume
set atom 757 mass 470.38935680660404159425524994730949
  1 settings made for mass
set atom 758 volume 0.52855377304295336760020518340752
  1 settings made for volume
set atom 758 mass 475.69839573865800730345654301345348
  1 settings made for mass
set atom 759 volume 0.52361005594275644714485906661139
  1 settings made for volume
set atom 759 mass 471.24905034848080731535446830093861
  1 settings made for mass
set atom 760 volume 0.52255323112310192446017254042090
  1 settings made for volume
set atom 760 mass 470.29790801079172979370923712849617
  1 settings made for mass
set atom 761 volume 0.52276012710826225138305289874552
  1 settings made for volume
set atom 761 mass 470.48411439743603068563970737159252
  1 settings made for mass
set atom 762 volume 0.52730385833826032282445339660626
  1 settings made for volume
set atom 762 mass 474.57347250443427810751018114387989
  1 settings made for mass
set atom 763 volume 0.52225571842147189283167563189636
  1 settings made for volume
set atom 763 mass 470.03014657932470754531095735728741
  1 settings made for mass
set atom 764 volume 0.52369258717436451000537545041880
  1 settings made for volume
set atom 764 mass 471.32332845692803857673425227403641
  1 settings made for mass
set atom 765 volume 0.52252009798933218842620362920570
  1 settings made for volume
set atom 765 mass 470.26808819039894160596304573118687
  1 settings made for mass
set atom 766 volume 0.52411610888595761004182804754237
  1 settings made for volume
set atom 766 mass 471.70449799736184104403946548700333
  1 settings made for mass
set atom 767 volume 0.51839885899868398677625691561843
  1 settings made for volume
set atom 767 mass 466.55897309881561341171618551015854
  1 settings made for mass
set atom 768 volume 0.51805532517572716599829618644435
  1 settings made for volume
set atom 768 mass 466.24979265815443341125501319766045
  1 settings made for mass
set atom 769 volume 0.52541624798558050901675642307964
  1 settings made for volume
set atom 769 mass 472.87462318702245056556421332061291
  1 settings made for mass
set atom 770 volume 0.52680068376582189770829245389905
  1 settings made for volume
set atom 770 mass 474.12061538923973103010212071239948
  1 settings made for mass
set atom 771 volume 0.52116201877445167411906368215568
  1 settings made for volume
set atom 771 mass 469.04581689700648894358891993761063
  1 settings made for mass
set atom 772 volume 0.52179305357237448781404509645654
  1 settings made for volume
set atom 772 mass 469.61374821513703636810532771050930
  1 settings made for mass
set atom 773 volume 0.52171779701440756937813603144605
  1 settings made for volume
set atom 773 mass 469.54601731296679645311087369918823
  1 settings made for mass
set atom 774 volume 0.52387565181362683031096594277187
  1 settings made for volume
set atom 774 mass 471.48808663226412818403332494199276
  1 settings made for mass
set atom 775 volume 0.52791446841058720096384604403283
  1 settings made for volume
set atom 775 mass 475.12302156952847553839092142879963
  1 settings made for mass
set atom 776 volume 0.52723747314725533108514810010092
  1 settings made for volume
set atom 776 mass 474.51372583252981485202326439321041
  1 settings made for mass
set atom 777 volume 0.52173764320175353148556496307719
  1 settings made for volume
set atom 777 mass 469.56387888157820498236105777323246
  1 settings made for mass
set atom 778 volume 0.52096175920430065620081450106227
  1 settings made for volume
set atom 778 mass 468.86558328387059191300068050622940
  1 settings made for mass
set atom 779 volume 0.52289522753053307990711573438602
  1 settings made for volume
set atom 779 mass 470.60570477747978657134808599948883
  1 settings made for mass
set atom 780 volume 0.52784751545033936626083459486836
  1 settings made for volume
set atom 780 mass 475.06276390530541675616404972970486
  1 settings made for mass
set atom 781 volume 0.52111002017126561991489097636077
  1 settings made for volume
set atom 781 mass 468.99901815413903705120901577174664
  1 settings made for mass
set atom 782 volume 0.52314343893222570169854179766844
  1 settings made for volume
set atom 782 mass 470.82909503900310710378107614815235
  1 settings made for mass
set atom 783 volume 0.51916843522143718558936598128639
  1 settings made for volume
set atom 783 mass 467.25159169929344216143363155424595
  1 settings made for mass
set atom 784 volume 0.52098380561713020231451309882686
  1 settings made for volume
set atom 784 mass 468.88542505541715854633366689085960
  1 settings made for mass
set atom 785 volume 0.52100710536525496330284568102797
  1 settings made for volume
set atom 785 mass 468.90639482872944654445745982229710
  1 settings made for mass
set atom 786 volume 0.52894729890429992291700500572915
  1 settings made for volume
set atom 786 mass 476.05256901386991330582532100379467
  1 settings made for mass
set atom 787 volume 0.51797274904392687222554059189861
  1 settings made for volume
set atom 787 mass 466.17547413953417390075628645718098
  1 settings made for mass
set atom 788 volume 0.51695012020322805845751190645387
  1 settings made for volume
set atom 788 mass 465.25510818290524639451177790760994
  1 settings made for mass
set atom 789 volume 0.52400221906027522056348288970185
  1 settings made for volume
set atom 789 mass 471.60199715424772648475482128560543
  1 settings made for mass
set atom 790 volume 0.52698655562511687033833140958450
  1 settings made for volume
set atom 790 mass 474.28790006260516065594856627285480
  1 settings made for mass
set atom 791 volume 0.52119741746420644723514215002069
  1 settings made for volume
set atom 791 mass 469.07767571778578030716744251549244
  1 settings made for mass
set atom 792 volume 0.52949829090374156415066408953862
  1 settings made for volume
set atom 792 mass 476.54846181336739618927822448313236
  1 settings made for mass
set atom 793 volume 0.52357657291753434414260937046492
  1 settings made for volume
set atom 793 mass 471.21891562578093726187944412231445
  1 settings made for mass
set atom 794 volume 0.52886889551890781113741013541585
  1 settings made for volume
set atom 794 mass 475.98200596701701670099282637238503
  1 settings made for mass
set atom 795 volume 0.52786870501476701456056161987362
  1 settings made for volume
set atom 795 mass 475.08183451329028912368812598288059
  1 settings made for mass
set atom 796 volume 0.51997144699894148889285361292423
  1 settings made for volume
set atom 796 mass 467.97430229904733778312220238149166
  1 settings made for mass
set atom 797 volume 0.51978648119412640404846115416149
  1 settings made for volume
set atom 797 mass 467.80783307471375565000926144421101
  1 settings made for mass
set atom 798 volume 0.51941138014941679035274546549772
  1 settings made for volume
set atom 798 mass 467.47024213447508600438595749437809
  1 settings made for mass
set atom 799 volume 0.51996515353202998888093588902848
  1 settings made for volume
set atom 799 mass 467.96863817882700686823227442800999
  1 settings made for mass
set atom 800 volume 0.52455242410273383857344242642284
  1 settings made for volume
set atom 800 mass 472.09718169246048091736156493425369
  1 settings made for mass
set atom 801 volume 0.53224399341402650609467173126177
  1 settings made for volume
set atom 801 mass 479.01959407262387458104058168828487
  1 settings made for mass
set atom 802 volume 0.52202319178960709944448126407224
  1 settings made for volume
set atom 802 mass 469.82087261064640415497706271708012
  1 settings made for mass
set atom 803 volume 0.52474218386035975658643337737885
  1 settings made for volume
set atom 803 mass 472.26796547432377337827347218990326
  1 settings made for mass
set atom 804 volume 0.51799930276703265441540224855999
  1 settings made for volume
set atom 804 mass 466.19937249032938098025624640285969
  1 settings made for mass
set atom 805 volume 0.52375868034648598303704147838289
  1 settings made for volume
set atom 805 mass 471.38281231183736963430419564247131
  1 settings made for mass
set atom 806 volume 0.52341728279039256843674365882180
  1 settings made for volume
set atom 806 mass 471.07555451135328894451959058642387
  1 settings made for mass
set atom 807 volume 0.52356981241398348192461753569660
  1 settings made for volume
set atom 807 mass 471.21283117258514039349392987787724
  1 settings made for mass
set atom 808 volume 0.52282338929405913763304170061019
  1 settings made for volume
set atom 808 mass 470.54105036465324474193039350211620
  1 settings made for mass
set atom 809 volume 0.51856696876882402147401762704249
  1 settings made for volume
set atom 809 mass 466.71027189194160200713668018579483
  1 settings made for mass
set atom 810 volume 0.52541891256616923833178134373156
  1 settings made for volume
set atom 810 mass 472.87702130955233315035002306103706
  1 settings made for mass
set atom 811 volume 0.52197018093242586456170784003916
  1 settings made for volume
set atom 811 mass 469.77316283918327144419890828430653
  1 settings made for mass
set atom 812 volume 0.52721845069030004449217585715814
  1 settings made for volume
set atom 812 mass 474.49660562127002094712224788963795
  1 settings made for mass
set atom 813 volume 0.53099656271803663543096263310872
  1 settings made for volume
set atom 813 mass 477.89690644623294701887061819434166
  1 settings made for mass
set atom 814 volume 0.52552043076631227425110637341277
  1 settings made for volume
set atom 814 mass 472.96838768968103750012232922017574
  1 settings made for mass
set atom 815 volume 0.52422648104000302282656775787473
  1 settings made for volume
set atom 815 mass 471.80383293600272054391098208725452
  1 settings made for mass
set atom 816 volume 0.52412145868195780806786387984175
  1 settings made for volume
set atom 816 mass 471.70931281376203969557536765933037
  1 settings made for mass
set atom 817 volume 0.52785880803797280425015969740343
  1 settings made for volume
set atom 817 mass 475.07292723417555180276394821703434
  1 settings made for mass
set atom 818 volume 0.51920182699683925520162119937595
  1 settings made for volume
set atom 818 mass 467.28164429715531014153384603559971
  1 settings made for mass
set atom 819 volume 0.51985536293669021290497767040506
  1 settings made for volume
set atom 819 mass 467.86982664302121293076197616755962
  1 settings made for mass
set atom 820 volume 0.52170702284968750728211261957767
  1 settings made for volume
set atom 820 mass 469.53632056471877831427264027297497
  1 settings made for mass
set atom 821 volume 0.52119950404959303202900855467306
  1 settings made for volume
set atom 821 mass 469.07955364463373371108900755643845
  1 settings made for mass
set atom 822 volume 0.52356891519128700984708757459885
  1 settings made for volume
set atom 822 mass 471.21202367215829553970252163708210
  1 settings made for mass
set atom 823 volume 0.52683222650926131436222021875437
  1 settings made for volume
set atom 823 mass 474.14900385833516338607296347618103
  1 settings made for mass
set atom 824 volume 0.52152781705898398900700385638629
  1 settings made for volume
set atom 824 mass 469.37503535308559321492793969810009
  1 settings made for mass
set atom 825 volume 0.52670747261385131299249451330979
  1 settings made for volume
set atom 825 mass 474.03672535246619190729688853025436
  1 settings made for mass
set atom 826 volume 0.51876100193674778982000361793325
  1 settings made for volume
set atom 826 mass 466.88490174307298730127513408660889
  1 settings made for mass
set atom 827 volume 0.52258718519701063964788545490592
  1 settings made for volume
set atom 827 mass 470.32846667730956369268824346363544
  1 settings made for mass
set atom 828 volume 0.52591274665752107964067363354843
  1 settings made for volume
set atom 828 mass 473.32147199176898766381782479584217
  1 settings made for mass
set atom 829 volume 0.52372313803719405811420983809512
  1 settings made for volume
set atom 829 mass 471.35082423347466829000040888786316
  1 settings made for mass
set atom 830 volume 0.52181481321714651144816343730781
  1 settings made for volume
set atom 830 mass 469.63333189543186563241761177778244
  1 settings made for mass
set atom 831 volume 0.52246131944896045951054475153796
  1 settings made for volume
set atom 831 mass 470.21518750406443132305867038667202
  1 settings made for mass
set atom 832 volume 0.52547970862164716798758945515146
  1 settings made for volume
set atom 832 mass 472.93173775948247339329100213944912
  1 settings made for mass
set atom 833 volume 0.52421812682809010297546592482831
  1 settings made for volume
set atom 833 mass 471.79631414528108734884881414473057
  1 settings made for mass
set atom 834 volume 0.52521387746758307901728812794317
  1 settings made for volume
set atom 834 mass 472.69248972082476711875642649829388
  1 settings made for mass
set atom 835 volume 0.52219994923232360140019636673969
  1 settings made for volume
set atom 835 mass 469.97995430909122660523280501365662
  1 settings made for mass
set atom 836 volume 0.51688790790192729041052643879084
  1 settings made for volume
set atom 836 mass 465.19911711173455159951117821037769
  1 settings made for mass
set atom 837 volume 0.52107105448817625514834617206361
  1 settings made for volume
set atom 837 mass 468.96394903935862430444103665649891
  1 settings made for mass
set atom 838 volume 0.52434428256294107750790089994553
  1 settings made for volume
set atom 838 mass 471.90985430664699151748209260404110
  1 settings made for mass
set atom 839 volume 0.52950056227059916214017221136601
  1 settings made for volume
set atom 839 mass 476.55050604353925791656365618109703
  1 settings made for mass
set atom 840 volume 0.52653351509131030017130115084001
  1 settings made for volume
set atom 840 mass 473.88016358217925017015659250319004
  1 settings made for mass
set atom 841 volume 0.52218946667234233949272947938880
  1 settings made for volume
set atom 841 mass 469.97052000510808511535287834703922
  1 settings made for mass
set atom 842 volume 0.52159995675990367125507418677444
  1 settings made for volume
set atom 842 mass 469.43996108391331745224306359887123
  1 settings made for mass
set atom 843 volume 0.52465249840480243648244140786119
  1 settings made for volume
set atom 843 mass 472.18724856432220349233830347657204
  1 settings made for mass
set atom 844 volume 0.52664960946324135271368049870944
  1 settings made for volume
set atom 844 mass 473.98464851691721833049086853861809
  1 settings made for mass
set atom 845 volume 0.52354128239262809341170168409008
  1 settings made for volume
set atom 845 mass 471.18715415336527030376601032912731
  1 settings made for mass
set atom 846 volume 0.52639077122253219442882254952565
  1 settings made for volume
set atom 846 mass 473.75169410027899630222236737608910
  1 settings made for mass
set atom 847 volume 0.52509880001124553672298134188168
  1 settings made for volume
set atom 847 mass 472.58892001012100081425160169601440
  1 settings made for mass
set atom 848 volume 0.52175513745970736323442906723358
  1 settings made for volume
set atom 848 mass 469.57962371373662335827248170971870
  1 settings made for mass
set atom 849 volume 0.52403685174598990670347120612860
  1 settings made for volume
set atom 849 mass 471.63316657139091603312408551573753
  1 settings made for mass
set atom 850 volume 0.52045151901073460898317080136621
  1 settings made for volume
set atom 850 mass 468.40636710966117561838473193347454
  1 settings made for mass
set atom 851 volume 0.51934074885282210942705205525272
  1 settings made for volume
set atom 851 mass 467.40667396753991624791524372994900
  1 settings made for mass
set atom 852 volume 0.52773378040366158980845057158149
  1 settings made for volume
set atom 852 mass 474.96040236329542949533788487315178
  1 settings made for mass
set atom 853 volume 0.52096712015917689964084047460346
  1 settings made for volume
set atom 853 mass 468.87040814325922610805719159543514
  1 settings made for mass
set atom 854 volume 0.52529139521474876861617531176307
  1 settings made for volume
set atom 854 mass 472.76225569327391440310748293995857
  1 settings made for mass
set atom 855 volume 0.52276608159663484620693907345412
  1 settings made for volume
set atom 855 mass 470.48947343697136602713726460933685
  1 settings made for mass
set atom 856 volume 0.52174266515025968793395350076025
  1 settings made for volume
set atom 856 mass 469.56839863523373423959128558635712
  1 settings made for mass
set atom 857 volume 0.52449909530147009739664554217597
  1 settings made for volume
set atom 857 mass 472.04918577132309565058676525950432
  1 settings made for mass
set atom 858 volume 0.52691948559812573638083676996757
  1 settings made for volume
set atom 858 mass 474.22753703831318716765963472425938
  1 settings made for mass
set atom 859 volume 0.52083226067636034795071964254021
  1 settings made for volume
set atom 859 mass 468.74903460872428695438429713249207
  1 settings made for mass
set atom 860 volume 0.51831520502104144743071856282768
  1 settings made for volume
set atom 860 mass 466.48368451893730934898485429584980
  1 settings made for mass
set atom 861 volume 0.52285029100554658576527344848728
  1 settings made for volume
set atom 861 mass 470.56526190499192807692452333867550
  1 settings made for mass
set atom 862 volume 0.52370669872372155317918895889306
  1 settings made for volume
set atom 862 mass 471.33602885134939697309164330363274
  1 settings made for mass
set atom 863 volume 0.52564389909584507964979138705530
  1 settings made for volume
set atom 863 mass 473.07950918626056591165252029895782
  1 settings made for mass
set atom 864 volume 0.52417936836496314967348553182092
  1 settings made for volume
set atom 864 mass 471.76143152846685779877589084208012
  1 settings made for mass
set atom 865 volume 0.52308006224903469405518308121827
  1 settings made for volume
set atom 865 mass 470.77205602413124552185763604938984
  1 settings made for mass
set atom 866 volume 0.53026854668550660321102441230323
  1 settings made for volume
set atom 866 mass 477.24169201695593756085145287215710
  1 settings made for mass
set atom 867 volume 0.52436469523555628846622767014196
  1 settings made for volume
set atom 867 mass 471.92822571200065340235596522688866
  1 settings made for mass
set atom 868 volume 0.52798318683995903999317533816793
  1 settings made for volume
set atom 868 mass 475.18486815596315864240750670433044
  1 settings made for mass
set atom 869 volume 0.52019509165183208665439451579005
  1 settings made for volume
set atom 869 mass 468.17558248664886377810034900903702
  1 settings made for mass
set atom 870 volume 0.52712676399858138243104122011573
  1 settings made for volume
set atom 870 mass 474.41408759872325617834576405584812
  1 settings made for mass
set atom 871 volume 0.52709783082868499892725822064676
  1 settings made for volume
set atom 871 mass 474.38804774581649326137267053127289
  1 settings made for mass
set atom 872 volume 0.52233870807530702329302130237920
  1 settings made for volume
set atom 872 mass 470.10483726777630408832919783890247
  1 settings made for mass
set atom 873 volume 0.52695171372560711819943435330060
  1 settings made for volume
set atom 873 mass 474.25654235304642725168378092348576
  1 settings made for mass
set atom 874 volume 0.52268765431858066339287915980094
  1 settings made for volume
set atom 874 mass 470.41888888672258417500415816903114
  1 settings made for mass
set atom 875 volume 0.52052022703685829618791558459634
  1 settings made for volume
set atom 875 mass 468.46820433317247989180032163858414
  1 settings made for mass
set atom 876 volume 0.52358468256611845337289423696348
  1 settings made for volume
set atom 876 mass 471.22621430950658805159037001430988
  1 settings made for mass
set atom 877 volume 0.52435456119418355491745842300588
  1 settings made for volume
set atom 877 mass 471.91910507476518432667944580316544
  1 settings made for mass
set atom 878 volume 0.52066367280215519741659591090865
  1 settings made for volume
set atom 878 mass 468.59730552193968833307735621929169
  1 settings made for mass
set atom 879 volume 0.52039088352550411098462745940196
  1 settings made for volume
set atom 879 mass 468.35179517295370033025392331182957
  1 settings made for mass
set atom 880 volume 0.52091924014106627538467364502139
  1 settings made for volume
set atom 880 mass 468.82731612695965850434731692075729
  1 settings made for mass
set atom 881 volume 0.52704539838258512851609793870011
  1 settings made for volume
set atom 881 mass 474.34085854432663609259179793298244
  1 settings made for mass
set atom 882 volume 0.52326011084515944293826805733261
  1 settings made for volume
set atom 882 mass 470.93409976064350530577939935028553
  1 settings made for mass
set atom 883 volume 0.52143596026865324244425892175059
  1 settings made for volume
set atom 883 mass 469.29236424178793640749063342809677
  1 settings made for mass
set atom 884 volume 0.52228919948511043358507777156774
  1 settings made for volume
set atom 884 mass 470.06027953659940976649522781372070
  1 settings made for mass
set atom 885 volume 0.52154289820268806554537377451197
  1 settings made for volume
set atom 885 mass 469.38860838241924966496299020946026
  1 settings made for mass
set atom 886 volume 0.52389704709167073115594348564628
  1 settings made for volume
set atom 886 mass 471.50734238250367980072041973471642
  1 settings made for mass
set atom 887 volume 0.51942565292793663189740982488729
  1 settings made for volume
set atom 887 mass 467.48308763514296515495516359806061
  1 settings made for mass
set atom 888 volume 0.51763304949571420365828089416027
  1 settings made for volume
set atom 888 mass 465.86974454614278329245280474424362
  1 settings made for mass
set atom 889 volume 0.52033584102186758446606518191402
  1 settings made for volume
set atom 889 mass 468.30225691968081491722841747105122
  1 settings made for mass
set atom 890 volume 0.52195487210395030697185347889899
  1 settings made for volume
set atom 890 mass 469.75938489355525007340474985539913
  1 settings made for mass
set atom 891 volume 0.52001352740860107282117041904712
  1 settings made for volume
set atom 891 mass 468.01217466774096465087495744228363
  1 settings made for mass
set atom 892 volume 0.52482783456735593308195575446007
  1 settings made for volume
set atom 892 mass 472.34505111062031801338889636099339
  1 settings made for mass
set atom 893 volume 0.51917381166895204547273579009925
  1 settings made for volume
set atom 893 mass 467.25643050205684403408668003976345
  1 settings made for mass
set atom 894 volume 0.52404515934871209736911623622291
  1 settings made for volume
set atom 894 mass 471.64064341384090539577300660312176
  1 settings made for mass
set atom 895 volume 0.52614242874528782678567040420603
  1 settings made for volume
set atom 895 mass 473.52818587075904588346020318567753
  1 settings made for mass
set atom 896 volume 0.52982247527700199185574092552997
  1 settings made for volume
set atom 896 mass 476.84022774930178911745315417647362
  1 settings made for mass
set atom 897 volume 0.52891173600538354815370212236303
  1 settings made for volume
set atom 897 mass 476.02056240484517957156640477478504
  1 settings made for mass
set atom 898 volume 0.52351173869540923444532154462649
  1 settings made for volume
set atom 898 mass 471.16056482586833453751751221716404
  1 settings made for mass
set atom 899 volume 0.52589422701492194445194172658375
  1 settings made for volume
set atom 899 mass 473.30480431342976999076199717819691
  1 settings made for mass
set atom 900 volume 0.52134256001771073218975516283535
  1 settings made for volume
set atom 900 mass 469.20830401593963188133784569799900
  1 settings made for mass
set atom 901 volume 0.52509018165659582244586545130005
  1 settings made for volume
set atom 901 mass 472.58116349093626240573939867317677
  1 settings made for mass
set atom 902 volume 0.52474184061105899612442726720474
  1 settings made for volume
set atom 902 mass 472.26765654995307386343483813107014
  1 settings made for mass
set atom 903 volume 0.52726962798040133417742936217110
  1 settings made for volume
set atom 903 mass 474.54266518236119054563459940254688
  1 settings made for mass
set atom 904 volume 0.52710977396911240511201413028175
  1 settings made for volume
set atom 904 mass 474.39879657220114950177958235144615
  1 settings made for mass
set atom 905 volume 0.52202174584771676713046417717123
  1 settings made for volume
set atom 905 mass 469.81957126294508952923933975398540
  1 settings made for mass
set atom 906 volume 0.52500010429324650562676879417268
  1 settings made for volume
set atom 906 mass 472.50009386392184751457534730434418
  1 settings made for mass
set atom 907 volume 0.51751049310290597738060114352265
  1 settings made for volume
set atom 907 mass 465.75944379261540007064468227326870
  1 settings made for mass
set atom 908 volume 0.52192137104681712855835939990357
  1 settings made for volume
set atom 908 mass 469.72923394213540859709610231220722
  1 settings made for mass
set atom 909 volume 0.52769925027123432137443614919903
  1 settings made for volume
set atom 909 mass 474.92932524411088479610043577849865
  1 settings made for mass
set atom 910 volume 0.51866689765865925387799961754354
  1 settings made for volume
set atom 910 mass 466.80020789279330983845284208655357
  1 settings made for mass
set atom 911 volume 0.52688403754429469216802317532711
  1 settings made for volume
set atom 911 mass 474.19563378986521229307982139289379
  1 settings made for mass
set atom 912 volume 0.52652852844939479481922717241105
  1 settings made for volume
set atom 912 mass 473.87567560445529579737922176718712
  1 settings made for mass
set atom 913 volume 0.52697901390676726851580724542146
  1 settings made for volume
set atom 913 mass 474.28111251609055898370570503175259
  1 settings made for mass
set atom 914 volume 0.52562696262077679421054199337959
  1 settings made for volume
set atom 914 mass 473.06426635869911478948779404163361
  1 settings made for mass
set atom 915 volume 0.52322736151779103419556804510648
  1 settings made for volume
set atom 915 mass 470.90462536601194187824148684740067
  1 settings made for mass
set atom 916 volume 0.52050050858560414912545866172877
  1 settings made for volume
set atom 916 mass 468.45045772704372666339622810482979
  1 settings made for mass
set atom 917 volume 0.52578636062292394282025043139583
  1 settings made for volume
set atom 917 mass 473.20772456063156141681247390806675
  1 settings made for mass
set atom 918 volume 0.51646606058065103184162580873817
  1 settings made for volume
set atom 918 mass 464.81945452258594286831794306635857
  1 settings made for mass
set atom 919 volume 0.52387723283743414803836913051782
  1 settings made for volume
set atom 919 mass 471.48950955369070925371488556265831
  1 settings made for mass
set atom 920 volume 0.52304333726048746200376626802608
  1 settings made for volume
set atom 920 mass 470.73900353443872290881699882447720
  1 settings made for mass
set atom 921 volume 0.52800109361070335367571715323720
  1 settings made for volume
set atom 921 mass 475.20098424963299521550652571022511
  1 settings made for mass
set atom 922 volume 0.52523303342268568005835049916641
  1 settings made for volume
set atom 922 mass 472.70973008041710272664204239845276
  1 settings made for mass
set atom 923 volume 0.52265066940259485850361897973926
  1 settings made for volume
set atom 923 mass 470.38560246233538464366574771702290
  1 settings made for mass
set atom 924 volume 0.52271584498851186850743033573963
  1 settings made for volume
set atom 924 mass 470.44426048966067810397362336516380
  1 settings made for mass
set atom 925 volume 0.51613083532229631078536158383940
  1 settings made for volume
set atom 925 mass 464.51775179006665439374046400189400
  1 settings made for mass
set atom 926 volume 0.52247361407767767271792536121211
  1 settings made for volume
set atom 926 mass 470.22625266990991121929255314171314
  1 settings made for mass
set atom 927 volume 0.52285828104352749523542343013105
  1 settings made for volume
set atom 927 mass 470.57245293917475237321923486888409
  1 settings made for mass
set atom 928 volume 0.52587967216348174837037277029594
  1 settings made for volume
set atom 928 mass 473.29170494713355310523184016346931
  1 settings made for mass
set atom 929 volume 0.52497713545292479242476701983833
  1 settings made for volume
set atom 929 mass 472.47942190763228609284851700067520
  1 settings made for mass
set atom 930 volume 0.52367474415858705771853465193999
  1 settings made for volume
set atom 930 mass 471.30726974272835150259197689592838
  1 settings made for mass
set atom 931 volume 0.52475250242068094408409706375096
  1 settings made for volume
set atom 931 mass 472.27725217861285500475787557661533
  1 settings made for mass
set atom 932 volume 0.52145675342973596411155767782475
  1 settings made for volume
set atom 932 mass 469.31107808676239301348687149584293
  1 settings made for mass
set atom 933 volume 0.52749532441399971105511212954298
  1 settings made for volume
set atom 933 mass 474.74579197259976126588298939168453
  1 settings made for mass
set atom 934 volume 0.52784036161730985003970317848143
  1 settings made for volume
set atom 934 mass 475.05632545557887169707100838422775
  1 settings made for mass
set atom 935 volume 0.52177550252440552114308047748636
  1 settings made for volume
set atom 935 mass 469.59795227196497080512926913797855
  1 settings made for mass
set atom 936 volume 0.52740384868187961675545238904306
  1 settings made for volume
set atom 936 mass 474.66346381369163509589270688593388
  1 settings made for mass
set atom 937 volume 0.52315068827247168670169230608735
  1 settings made for volume
set atom 937 mass 470.83561944522449493888416327536106
  1 settings made for mass
set atom 938 volume 0.52336109488693027813610569864977
  1 settings made for volume
set atom 938 mass 471.02498539823727696784771978855133
  1 settings made for mass
set atom 939 volume 0.52051923425230639530525422742357
  1 settings made for volume
set atom 939 mass 468.46731082707577797918929718434811
  1 settings made for mass
set atom 940 volume 0.52902860316112865213256100105355
  1 settings made for volume
set atom 940 mass 476.12574284501579313655383884906769
  1 settings made for mass
set atom 941 volume 0.52477680147055738579808803478954
  1 settings made for volume
set atom 941 mass 472.29912132350165165917132981121540
  1 settings made for mass
set atom 942 volume 0.52407005342017198845638858983875
  1 settings made for volume
set atom 942 mass 471.66304807815481581201311200857162
  1 settings made for mass
set atom 943 volume 0.52257627553920260599085167996236
  1 settings made for volume
set atom 943 mass 470.31864798528232540775206871330738
  1 settings made for mass
set atom 944 volume 0.52414246439728351401043937585200
  1 settings made for volume
set atom 944 mass 471.72821795755515950077096931636333
  1 settings made for mass
set atom 945 volume 0.52001887533154755871578345249873
  1 settings made for volume
set atom 945 mass 468.01698779839279040970723144710064
  1 settings made for mass
set atom 946 volume 0.52161864759172471561754491631291
  1 settings made for volume
set atom 946 mass 469.45678283255222140724072232842445
  1 settings made for mass
set atom 947 volume 0.52025541789980001006199472612934
  1 settings made for volume
set atom 947 mass 468.22987610981999750947579741477966
  1 settings made for mass
set atom 948 volume 0.52329374828616892489918654973735
  1 settings made for volume
set atom 948 mass 470.96437345755202841246500611305237
  1 settings made for mass
set atom 949 volume 0.51989719122186239808058871858520
  1 settings made for volume
set atom 949 mass 467.90747209967616981884930282831192
  1 settings made for mass
set atom 950 volume 0.52938863957697113171718683588551
  1 settings made for volume
set atom 950 mass 476.44977561927402121000341139733791
  1 settings made for mass
set atom 951 volume 0.52301759962355387489907343478990
  1 settings made for volume
set atom 951 mass 470.71583966119851538678631186485291
  1 settings made for mass
set atom 952 volume 0.52572585995309384365725691168336
  1 settings made for volume
set atom 952 mass 473.15327395778444952156860381364822
  1 settings made for mass
set atom 953 volume 0.51992522219955594753315608613775
  1 settings made for volume
set atom 953 mass 467.93269997960032924311235547065735
  1 settings made for mass
set atom 954 volume 0.52376409339970941836384099588031
  1 settings made for volume
set atom 954 mass 471.38768405973848985013319179415703
  1 settings made for mass
set atom 955 volume 0.52343161602049548264403711073101
  1 settings made for volume
set atom 955 mass 471.08845441844596280134283006191254
  1 settings made for mass
set atom 956 volume 0.52322362695702906432160261829267
  1 settings made for volume
set atom 956 mass 470.90126426132616188624524511396885
  1 settings made for mass
set atom 957 volume 0.51840832553919835579137043168885
  1 settings made for volume
set atom 957 mass 466.56749298527853397899889387190342
  1 settings made for mass
set atom 958 volume 0.52544378335986308137250944128027
  1 settings made for volume
set atom 958 mass 472.89940502387679543971898965537548
  1 settings made for mass
set atom 959 volume 0.52250209970942951276384746961412
  1 settings made for volume
set atom 959 mass 470.25188973848656814880087040364742
  1 settings made for mass
set atom 960 volume 0.52037401476307409975419204783975
  1 settings made for volume
set atom 960 mass 468.33661328676669199921889230608940
  1 settings made for mass
set atom 961 volume 0.52360797696016336821855929883895
  1 settings made for volume
set atom 961 mass 471.24717926414700741588603705167770
  1 settings made for mass
set atom 962 volume 0.52894957065648207095165389546310
  1 settings made for volume
set atom 962 mass 476.05461359083386696511297486722469
  1 settings made for mass
set atom 963 volume 0.52641353858311323854479724104749
  1 settings made for volume
set atom 963 mass 473.77218472480188893314334563910961
  1 settings made for mass
set atom 964 volume 0.52678047941863592740219246479683
  1 settings made for volume
set atom 964 mass 474.10243147677232400383218191564083
  1 settings made for mass
set atom 965 volume 0.52712457761965458846731280573294
  1 settings made for volume
set atom 965 mass 474.41211985768910608385340310633183
  1 settings made for mass
set atom 966 volume 0.52084416599326788244184172071982
  1 settings made for volume
set atom 966 mass 468.75974939394109242130070924758911
  1 settings made for mass
set atom 967 volume 0.52582445204527195059540645161178
  1 settings made for volume
set atom 967 mass 473.24200684074475020679528824985027
  1 settings made for mass
set atom 968 volume 0.52222370448235544415638287318870
  1 settings made for volume
set atom 968 mass 470.00133403411990684617194347083569
  1 settings made for mass
set atom 969 volume 0.52607270547998485898943954452989
  1 settings made for volume
set atom 969 mass 473.46543493198635133012430742383003
  1 settings made for mass
set atom 970 volume 0.52673816171474074909752971507260
  1 settings made for volume
set atom 970 mass 474.06434554326665420376230031251907
  1 settings made for mass
set atom 971 volume 0.52759334438274130274493245451595
  1 settings made for volume
set atom 971 mass 474.83400994446719778352417051792145
  1 settings made for mass
set atom 972 volume 0.52425569771177193967304219768266
  1 settings made for volume
set atom 972 mass 471.83012794059476391339558176696301
  1 settings made for mass
set atom 973 volume 0.52205719527830929393985570641235
  1 settings made for volume
set atom 973 mass 469.85147575047835744044277817010880
  1 settings made for mass
set atom 974 volume 0.52272741637319330987310195268947
  1 settings made for volume
set atom 974 mass 470.45467473587399354073568247258663
  1 settings made for mass
set atom 975 volume 0.52581321999094898789195440258482
  1 settings made for volume
set atom 975 mass 473.23189799185411175130866467952728
  1 settings made for mass
set atom 976 volume 0.52548169900661101383576578882639
  1 settings made for volume
set atom 976 mass 472.93352910594990134995896369218826
  1 settings made for mass
set atom 977 volume 0.52241695573579738365310731751379
  1 settings made for volume
set atom 977 mass 470.17526016221762574787135235965252
  1 settings made for mass
set atom 978 volume 0.52771006030164069322552222729428
  1 settings made for volume
set atom 978 mass 474.93905427147660702758003026247025
  1 settings made for mass
set atom 979 volume 0.52497618292439340859090179947088
  1 settings made for volume
set atom 979 mass 472.47856463195404330690507777035236
  1 settings made for mass
set atom 980 volume 0.52305437441490554295597803502460
  1 settings made for volume
set atom 980 mass 470.74893697341497045272262766957283
  1 settings made for mass
set atom 981 volume 0.52223341556118685335974305417039
  1 settings made for volume
set atom 981 mass 470.01007400506819067231845110654831
  1 settings made for mass
set atom 982 volume 0.52622047218832468384874800904072
  1 settings made for volume
set atom 982 mass 473.59842496949221413160557858645916
  1 settings made for mass
set atom 983 volume 0.52199306122119737416653606487671
  1 settings made for volume
set atom 983 mass 469.79375509907765717798611149191856
  1 settings made for mass
set atom 984 volume 0.52346063911295936943446349687292
  1 settings made for volume
set atom 984 mass 471.11457520166345602774526923894882
  1 settings made for mass
set atom 985 volume 0.52327044419766788330150575347943
  1 settings made for volume
set atom 985 mass 470.94339977790110651767463423311710
  1 settings made for mass
set atom 986 volume 0.52511441096821098728497645424795
  1 settings made for volume
set atom 986 mass 472.60296987138991653409902937710285
  1 settings made for mass
set atom 987 volume 0.51946403435760046818359114695340
  1 settings made for volume
set atom 987 mass 467.51763092184040715437731705605984
  1 settings made for mass
set atom 988 volume 0.52988582635529790643147407536162
  1 settings made for volume
set atom 988 mass 476.89724371976814154550083912909031
  1 settings made for mass
set atom 989 volume 0.52114367456776899967252347778413
  1 settings made for volume
set atom 989 mass 469.02930711099207883307826705276966
  1 settings made for mass
set atom 990 volume 0.51777506946949514166078643029323
  1 settings made for volume
set atom 990 mass 465.99756252254564969916827976703644
  1 settings made for mass
set atom 991 volume 0.52206823142655423009017567892442
  1 settings made for volume
set atom 991 mass 469.86140828389881107796099968254566
  1 settings made for mass
set atom 992 volume 0.52761349690884085106290513067506
  1 settings made for volume
set atom 992 mass 474.85214721795676950932829640805721
  1 settings made for mass
set atom 993 volume 0.52936132134049407316211954821483
  1 settings made for volume
set atom 993 mass 476.42518920644465652003418654203415
  1 settings made for mass
set atom 994 volume 0.52631768764154729378645924953162
  1 settings made for volume
set atom 994 mass 473.68591887739256662825937382876873
  1 settings made for mass
set atom 995 volume 0.51938802455864030438448253335082
  1 settings made for volume
set atom 995 mass 467.44922210277627527830190956592560
  1 settings made for mass
set atom 996 volume 0.51972522951043464978226893435931
  1 settings made for volume
set atom 996 mass 467.75270655939118569222046062350273
  1 settings made for mass
set atom 997 volume 0.52104153827067400950312503482564
  1 settings made for volume
set atom 997 mass 468.93738444360661787868593819439411
  1 settings made for mass
set atom 998 volume 0.52241339166205502664297455339693
  1 settings made for volume
set atom 998 mass 470.17205249584952753139077685773373
  1 settings made for mass
set atom 999 volume 0.52174885688604755173969351744745
  1 settings made for volume
set atom 999 mass 469.57397119744280189479468390345573
  1 settings made for mass
set atom 1000 volume 0.52593048192339220126001464450383
  1 settings made for volume
set atom 1000 mass 473.33743373105295404457137919962406
  1 settings made for mass
set atom 1001 volume 0.52793387471497943419507237194921
  1 settings made for volume
set atom 1001 mass 475.14048724348151608865009620785713
  1 settings made for mass
set atom 1002 volume 0.52105227411871235521090284237289
  1 settings made for volume
set atom 1002 mass 468.94704670684109260037075728178024
  1 settings made for mass
set atom 1003 volume 0.52626143810043324311465084974770
  1 settings made for volume
set atom 1003 mass 473.63529429038993612266494892537594
  1 settings made for mass
set atom 1004 volume 0.52069593744169428983781244824058
  1 settings made for volume
set atom 1004 mass 468.62634369752487373261828906834126
  1 settings made for mass
set atom 1005 volume 0.52386709277856602362533067207551
  1 settings made for volume
set atom 1005 mass 471.48038350070942215097602456808090
  1 settings made for mass
set atom 1006 volume 0.51875680279507596637245114834514
  1 settings made for volume
set atom 1006 mass 466.88112251556839282784494571387768
  1 settings made for mass
set atom 1007 volume 0.52474867841980443738947315068799
  1 settings made for volume
set atom 1007 mass 472.27381057782400830546976067125797
  1 settings made for mass
set atom 1008 volume 0.52190160288312159586610050610034
  1 settings made for volume
set atom 1008 mass 469.71144259480945493123726919293404
  1 settings made for mass
set atom 1009 volume 0.52272169109189647873137118949671
  1 settings made for volume
set atom 1009 mass 470.44952198270681265057646669447422
  1 settings made for mass
set atom 1010 volume 0.52377024730609922364976682729321
  1 settings made for volume
set atom 1010 mass 471.39322257548928973847068846225739
  1 settings made for mass
set atom 1011 volume 0.52646227902017361799380523734726
  1 settings made for volume
set atom 1011 mass 473.81605111815628106342046521604061
  1 settings made for mass
set atom 1012 volume 0.52323766339240218581352337423596
  1 settings made for volume
set atom 1012 mass 470.91389705316197478168760426342487
  1 settings made for mass
set atom 1013 volume 0.52468267693177750299327044558595
  1 settings made for volume
set atom 1013 mass 472.21440923859972826903685927391052
  1 settings made for mass
set atom 1014 volume 0.52252971862207520103993374505080
  1 settings made for volume
set atom 1014 mass 470.27674675986770580493612214922905
  1 settings made for mass
set atom 1015 volume 0.52433690466772642224668743438087
  1 settings made for volume
set atom 1015 mass 471.90321420095375515302293933928013
  1 settings made for mass
set atom 1016 volume 0.52467656269264839608013062388636
  1 settings made for volume
set atom 1016 mass 472.20890642338355291940388269722462
  1 settings made for mass
set atom 1017 volume 0.52711244681918889565253039108939
  1 settings made for volume
set atom 1017 mass 474.40120213726999054415500722825527
  1 settings made for mass
set atom 1018 volume 0.52352098834734783761035714633181
  1 settings made for volume
set atom 1018 mass 471.16888951261307738604955375194550
  1 settings made for mass
set atom 1019 volume 0.51618109849036863945315189994290
  1 settings made for volume
set atom 1019 mass 464.56298864133179904456483200192451
  1 settings made for mass
set atom 1020 volume 0.52288085694468733333195586965303
  1 settings made for volume
set atom 1020 mass 470.59277125021861820641788654029369
  1 settings made for mass
set atom 1021 volume 0.51777225122195091877586037298897
  1 settings made for volume
set atom 1021 mass 465.99502609975581890466855838894844
  1 settings made for mass
set atom 1022 volume 0.52824830306165970750242877329583
  1 settings made for volume
set atom 1022 mass 475.42347275549371943270671181380749
  1 settings made for mass
set atom 1023 volume 0.52176297443038543999449530019774
  1 settings made for volume
set atom 1023 mass 469.58667698734689111006446182727814
  1 settings made for mass
set atom 1024 volume 0.52442827924409307627229281933978
  1 settings made for volume
set atom 1024 mass 471.98545131968376153963617980480194
  1 settings made for mass
set atom 1025 volume 0.52366522591869058000924042062252
  1 settings made for volume
set atom 1025 mass 471.29870332682151001790771260857582
  1 settings made for mass
set atom 1026 volume 0.52169383753410902837543972054846
  1 settings made for volume
set atom 1026 mass 469.52445378069813841648283414542675
  1 settings made for mass
set atom 1027 volume 0.52699670972453815931402232308756
  1 settings made for volume
set atom 1027 mass 474.29703875208434737942297942936420
  1 settings made for mass
set atom 1028 volume 0.52197051990523934961174745694734
  1 settings made for volume
set atom 1028 mass 469.77346791471541109785903245210648
  1 settings made for mass
set atom 1029 volume 0.52301268664170119659928559485707
  1 settings made for volume
set atom 1029 mass 470.71141797753108448887360282242298
  1 settings made for mass
set atom 1030 volume 0.51774929945696857025438930577366
  1 settings made for volume
set atom 1030 mass 465.97436951127173188069718889892101
  1 settings made for mass
set atom 1031 volume 0.52081449857732153851941347966203
  1 settings made for volume
set atom 1031 mass 468.73304871958936246301163919270039
  1 settings made for mass
set atom 1032 volume 0.52563899051469809009518030507024
  1 settings made for volume
set atom 1032 mass 473.07509146322826154573704116046429
  1 settings made for mass
set atom 1033 volume 0.52678324847963819976826016500127
  1 settings made for volume
set atom 1033 mass 474.10492363167435314608155749738216
  1 settings made for mass
set atom 1034 volume 0.52035825456368878239032937926822
  1 settings made for volume
set atom 1034 mass 468.32242910731991969441878609359264
  1 settings made for mass
set atom 1035 volume 0.52205717613600777227134130953345
  1 settings made for volume
set atom 1035 mass 469.85145852240697195156826637685299
  1 settings made for mass
set atom 1036 volume 0.53089822705476430453330749514862
  1 settings made for volume
set atom 1036 mass 477.80840434928785498414072208106518
  1 settings made for mass
set atom 1037 volume 0.52403901550766096573141794578987
  1 settings made for volume
set atom 1037 mass 471.63511395689488381322007626295090
  1 settings made for mass
set atom 1038 volume 0.52104869697590761035144168999977
  1 settings made for volume
set atom 1038 mass 468.94382727831685997443855740129948
  1 settings made for mass
set atom 1039 volume 0.51997827874129898262367532879580
  1 settings made for volume
set atom 1039 mass 467.98045086716911100666038691997528
  1 settings made for mass
set atom 1040 volume 0.52414242951173051210389530751854
  1 settings made for volume
set atom 1040 mass 471.72818656055744668265106156468391
  1 settings made for mass
set atom 1041 volume 0.52455022366083925433599688403774
  1 settings made for volume
set atom 1041 mass 472.09520129475532712604035623371601
  1 settings made for mass
set atom 1042 volume 0.52316649558215611026668057093048
  1 settings made for volume
set atom 1042 mass 470.84984602394047215057071298360825
  1 settings made for mass
set atom 1043 volume 0.52309780251724169453098056692397
  1 settings made for volume
set atom 1043 mass 470.78802226551749754435149952769279
  1 settings made for mass
set atom 1044 volume 0.52224926814754046855426850015647
  1 settings made for volume
set atom 1044 mass 470.02434133278643457742873579263687
  1 settings made for mass
set atom 1045 volume 0.52607609601265614696075090250815
  1 settings made for volume
set atom 1045 mass 473.46848641139052915605134330689907
  1 settings made for mass
set atom 1046 volume 0.52203137853467274087648775093840
  1 settings made for volume
set atom 1046 mass 469.82824068120544325211085379123688
  1 settings made for mass
set atom 1047 volume 0.52456280992819359632051146036247
  1 settings made for volume
set atom 1047 mass 472.10652893537422869485453702509403
  1 settings made for mass
set atom 1048 volume 0.51798570976466373760871420017793
  1 settings made for volume
set atom 1048 mass 466.18713878819738738457090221345425
  1 settings made for mass
set atom 1049 volume 0.52652727670328791642617716206587
  1 settings made for volume
set atom 1049 mass 473.87454903295912345129181630909443
  1 settings made for mass
set atom 1050 volume 0.52152227915626814258587273798184
  1 settings made for volume
set atom 1050 mass 469.37005124064131678096600808203220
  1 settings made for mass
set atom 1051 volume 0.52217143036602620131958474303246
  1 settings made for volume
set atom 1051 mass 469.95428732942360738888964988291264
  1 settings made for mass
set atom 1052 volume 0.52299690204020377048976797595969
  1 settings made for volume
set atom 1052 mass 470.69721183618338500309619121253490
  1 settings made for mass
set atom 1053 volume 0.52501840674158217758815681008855
  1 settings made for volume
set atom 1053 mass 472.51656606742398025744478218257427
  1 settings made for mass
set atom 1054 volume 0.52652720568207234119739723610110
  1 settings made for volume
set atom 1054 mass 473.87448511386509153453516773879528
  1 settings made for mass
set atom 1055 volume 0.52303076642314305644276828388683
  1 settings made for volume
set atom 1055 mass 470.72768978082876856205984950065613
  1 settings made for mass
set atom 1056 volume 0.52635050158725771307643981344881
  1 settings made for volume
set atom 1056 mass 473.71545142853193510745768435299397
  1 settings made for mass
set atom 1057 volume 0.51981832754881296398963286264916
  1 settings made for volume
set atom 1057 mass 467.83649479393164938301197253167629
  1 settings made for mass
set atom 1058 volume 0.52280896243847541082772067966289
  1 settings made for volume
set atom 1058 mass 470.52806619462785420182626694440842
  1 settings made for mass
set atom 1059 volume 0.52579021994829655550773850336554
  1 settings made for volume
set atom 1059 mass 473.21119795346692171733593568205833
  1 settings made for mass
set atom 1060 volume 0.52405153871065823789621163086849
  1 settings made for volume
set atom 1060 mass 471.64638483959242876153439283370972
  1 settings made for mass
set atom 1061 volume 0.52541732918873285118621652145521
  1 settings made for volume
set atom 1061 mass 472.87559626985955674172146245837212
  1 settings made for mass
set atom 1062 volume 0.52461034451147159352046855929075
  1 settings made for volume
set atom 1062 mass 472.14931006032441018760437145829201
  1 settings made for mass
set atom 1063 volume 0.52666466452856008917393637602800
  1 settings made for volume
set atom 1063 mass 473.99819807570406737795565277338028
  1 settings made for mass
set atom 1064 volume 0.51998413765698658917102648047148
  1 settings made for volume
set atom 1064 mass 467.98572389128793247436988167464733
  1 settings made for mass
set atom 1065 volume 0.52417689118741617182450909240288
  1 settings made for volume
set atom 1065 mass 471.75920206867453998711425811052322
  1 settings made for mass
set atom 1066 volume 0.52406472401267822913695226816344
  1 settings made for volume
set atom 1066 mass 471.65825161141037824563682079315186
  1 settings made for mass
set atom 1067 volume 0.52850825548151592059298309322912
  1 settings made for volume
set atom 1067 mass 475.65742993336431254647322930395603
  1 settings made for mass
set atom 1068 volume 0.52379637695251024531728489819216
  1 settings made for volume
set atom 1068 mass 471.41673925725922345009166747331619
  1 settings made for mass
set atom 1069 volume 0.52341393209531361652153691466083
  1 settings made for volume
set atom 1069 mass 471.07253888578225087258033454418182
  1 settings made for mass
set atom 1070 volume 0.52134191827375675476474725655862
  1 settings made for volume
set atom 1070 mass 469.20772644638105930425808764994144
  1 settings made for mass
set atom 1071 volume 0.52527731673453825766983982248348
  1 settings made for volume
set atom 1071 mass 472.74958506108441724791191518306732
  1 settings made for mass
set atom 1072 volume 0.52635974078899083750116005830932
  1 settings made for volume
set atom 1072 mass 473.72376671009175197468721307814121
  1 settings made for mass
set atom 1073 volume 0.52639241589065444149042605204158
  1 settings made for volume
set atom 1073 mass 473.75317430158901288450579158961773
  1 settings made for mass
set atom 1074 volume 0.52711381592027306552949994511437
  1 settings made for volume
set atom 1074 mass 474.40243432824576075290679000318050
  1 settings made for mass
set atom 1075 volume 0.52492873145916296717672366867191
  1 settings made for volume
set atom 1075 mass 472.43585831324668333763838745653629
  1 settings made for mass
set atom 1076 volume 0.52133259942159693167695877491497
  1 settings made for volume
set atom 1076 mass 469.19933947943724206197657622396946
  1 settings made for mass
set atom 1077 volume 0.53123468922522831814347910039942
  1 settings made for volume
set atom 1077 mass 478.11122030270547611507936380803585
  1 settings made for mass
set atom 1078 volume 0.51794517644345727802601686562411
  1 settings made for volume
set atom 1078 mass 466.15065879911156798698357306420803
  1 settings made for mass
set atom 1079 volume 0.52409885607922901407107474369695
  1 settings made for volume
set atom 1079 mass 471.68897047130610644671833142638206
  1 settings made for mass
set atom 1080 volume 0.52489106693674980608221858346951
  1 settings made for volume
set atom 1080 mass 472.40196024307482502990751527249813
  1 settings made for mass
set atom 1081 volume 0.52148914893735909270588990693795
  1 settings made for volume
set atom 1081 mass 469.34023404362318387939012609422207
  1 settings made for mass
set atom 1082 volume 0.52408717952079697521838852480869
  1 settings made for volume
set atom 1082 mass 471.67846156871729590420727618038654
  1 settings made for mass
set atom 1083 volume 0.52345001382413303137042248636135
  1 settings made for volume
set atom 1083 mass 471.10501244171973667107522487640381
  1 settings made for mass
set atom 1084 volume 0.51912730583965494002285367969307
  1 settings made for volume
set atom 1084 mass 467.21457525568945357008487917482853
  1 settings made for mass
set atom 1085 volume 0.52238218239284250898890604730695
  1 settings made for volume
set atom 1085 mass 470.14396415355827230087015777826309
  1 settings made for mass
set atom 1086 volume 0.52432512398404773623639130164520
  1 settings made for volume
set atom 1086 mass 471.89261158564295328687876462936401
  1 settings made for mass
set atom 1087 volume 0.52064959927362541858286704155034
  1 settings made for volume
set atom 1087 mass 468.58463934626286118145799264311790
  1 settings made for mass
set atom 1088 volume 0.52460702271394854534491969388910
  1 settings made for volume
set atom 1088 mass 472.14632044255370146856876090168953
  1 settings made for mass
set atom 1089 volume 0.52074511640403775558638699294534
  1 settings made for volume
set atom 1089 mass 468.67060476363400312038720585405827
  1 settings made for mass
set atom 1090 volume 0.51899740644280745183181124957628
  1 settings made for volume
set atom 1090 mass 467.09766579852669110550777986645699
  1 settings made for mass
set atom 1091 volume 0.51930366221750345889773825547309
  1 settings made for volume
set atom 1091 mass 467.37329599575309657666366547346115
  1 settings made for mass
set atom 1092 volume 0.52196509610752894747776053918642
  1 settings made for volume
set atom 1092 mass 469.76858649677603807504056021571159
  1 settings made for mass
set atom 1093 volume 0.52746953010642416703745993800112
  1 settings made for volume
set atom 1093 mass 474.72257709578173034969950094819069
  1 settings made for mass
set atom 1094 volume 0.52782220591000761356070825058850
  1 settings made for volume
set atom 1094 mass 475.03998531900685975415399298071861
  1 settings made for mass
set atom 1095 volume 0.52067916510032175025912692944985
  1 settings made for volume
set atom 1095 mass 468.61124859028956279871636070311069
  1 settings made for mass
set atom 1096 volume 0.52205019831151433518101612207829
  1 settings made for volume
set atom 1096 mass 469.84517848036290388336055912077427
  1 settings made for mass
set atom 1097 volume 0.52569192095567307543291235560901
  1 settings made for volume
set atom 1097 mass 473.12272886010578076820820569992065
  1 settings made for mass
set atom 1098 volume 0.52080939363290212895662989467382
  1 settings made for volume
set atom 1098 mass 468.72845426961191606096690520644188
  1 settings made for mass
set atom 1099 volume 0.52312185620061268931380027424893
  1 settings made for volume
set atom 1099 mass 470.80967058055142615557997487485409
  1 settings made for mass
set atom 1100 volume 0.51596118686302316902470010973047
  1 settings made for volume
set atom 1100 mass 464.36506817672085389858693815767765
  1 settings made for mass
set atom 1101 volume 0.52879838036546622515032822775538
  1 settings made for volume
set atom 1101 mass 475.91854232891961373752565123140812
  1 settings made for mass
set atom 1102 volume 0.52028710184199811195071561087389
  1 settings made for volume
set atom 1102 mass 468.25839165779831319014192558825016
  1 settings made for mass
set atom 1103 volume 0.52634688644015492631211827756488
  1 settings made for volume
set atom 1103 mass 473.71219779613943501317407935857773
  1 settings made for mass
set atom 1104 volume 0.52186684001967953427936208754545
  1 settings made for volume
set atom 1104 mass 469.68015601771156752874958328902721
  1 settings made for mass
set atom 1105 volume 0.52152804714504019667487000333495
  1 settings made for volume
set atom 1105 mass 469.37524243053616146426065824925900
  1 settings made for mass
set atom 1106 volume 0.52647849277385960764519268195727
  1 settings made for volume
set atom 1106 mass 473.83064349647366952922311611473560
  1 settings made for mass
set atom 1107 volume 0.52504111637436634563158577293507
  1 settings made for volume
set atom 1107 mass 472.53700473692970263073220849037170
  1 settings made for mass
set atom 1108 volume 0.52593706084432945147000282304361
  1 settings made for volume
set atom 1108 mass 473.34335475989649921757518313825130
  1 settings made for mass
set atom 1109 volume 0.52681222904399760409432929009199
  1 settings made for volume
set atom 1109 mass 474.13100613959784368489636108279228
  1 settings made for mass
set atom 1110 volume 0.51648587458224637369852416668436
  1 settings made for volume
set atom 1110 mass 464.83728712402171368012204766273499
  1 settings made for mass
set atom 1111 volume 0.52139682941558507245360942761181
  1 settings made for volume
set atom 1111 mass 469.25714647402656964914058335125446
  1 settings made for mass
set atom 1112 volume 0.51835452027059769619654616690241
  1 settings made for volume
set atom 1112 mass 466.51906824353790170789579860866070
  1 settings made for mass
set atom 1113 volume 0.52485004773192711624574258166831
  1 settings made for volume
set atom 1113 mass 472.36504295873442060837987810373306
  1 settings made for mass
set atom 1114 volume 0.52924078449269784663044902117690
  1 settings made for volume
set atom 1114 mass 476.31670604342804153930046595633030
  1 settings made for mass
set atom 1115 volume 0.52511929560467052180428026986192
  1 settings made for volume
set atom 1115 mass 472.60736604420344519894570112228394
  1 settings made for mass
set atom 1116 volume 0.52287463545017243138346429986996
  1 settings made for volume
set atom 1116 mass 470.58717190515517359017394483089447
  1 settings made for mass
set atom 1117 volume 0.52302472143341360855117727624020
  1 settings made for volume
set atom 1117 mass 470.72224929007222726795589551329613
  1 settings made for mass
set atom 1118 volume 0.52340639691847856695972041052300
  1 settings made for volume
set atom 1118 mass 471.06575722663069427653681486845016
  1 settings made for mass
set atom 1119 volume 0.52748049476117342404535293098888
  1 settings made for volume
set atom 1119 mass 474.73244528505608741397736594080925
  1 settings made for mass
set atom 1120 volume 0.52394906390937590057177430935553
  1 settings made for volume
set atom 1120 mass 471.55415751843833049861132167279720
  1 settings made for mass
set atom 1121 volume 0.52747876086383416183167582858005
  1 settings made for volume
set atom 1121 mass 474.73088477745073987534851767122746
  1 settings made for mass
set atom 1122 volume 0.52233266254905796888152735846234
  1 settings made for volume
set atom 1122 mass 470.09939629415219997099484317004681
  1 settings made for mass
set atom 1123 volume 0.52383490193879478358240930901957
  1 settings made for volume
set atom 1123 mass 471.45141174491533320178859867155552
  1 settings made for mass
set atom 1124 volume 0.52238103678830338783001252522808
  1 settings made for volume
set atom 1124 mass 470.14293310947306281377677805721760
  1 settings made for mass
set atom 1125 volume 0.52547948924776477497289306484163
  1 settings made for volume
set atom 1125 mass 472.93154032298832589731318876147270
  1 settings made for mass
set atom 1126 volume 0.52123846325594969108863097062567
  1 settings made for volume
set atom 1126 mass 469.11461693035471398616209626197815
  1 settings made for mass
set atom 1127 volume 0.52818163090784941982036571062054
  1 settings made for volume
set atom 1127 mass 475.36346781706447472970467060804367
  1 settings made for mass
set atom 1128 volume 0.52775786410259462044791689550038
  1 settings made for volume
set atom 1128 mass 474.98207769233516728490940295159817
  1 settings made for mass
set atom 1129 volume 0.52511294224389493123794636630919
  1 settings made for volume
set atom 1129 mass 472.60164801950543278508121147751808
  1 settings made for mass
set atom 1130 volume 0.52579125620760858161872874916298
  1 settings made for volume
set atom 1130 mass 473.21213058684770658146589994430542
  1 settings made for mass
set atom 1131 volume 0.52705095803332302484278670817730
  1 settings made for volume
set atom 1131 mass 474.34586222999070059813675470650196
  1 settings made for mass
set atom 1132 volume 0.52460074915254217842175421537831
  1 settings made for volume
set atom 1132 mass 472.14067423728795347415143623948097
  1 settings made for mass
set atom 1133 volume 0.52645837259633432303473909996683
  1 settings made for volume
set atom 1133 mass 473.81253533670087563223205506801605
  1 settings made for mass
set atom 1134 volume 0.51953503272234879961644082868588
  1 settings made for volume
set atom 1134 mass 467.58152945011391921070753596723080
  1 settings made for mass
set atom 1135 volume 0.52342943302232880498081613040995
  1 settings made for volume
set atom 1135 mass 471.08648972009592625909135676920414
  1 settings made for mass
set atom 1136 volume 0.52212315804635400784405874219374
  1 settings made for volume
set atom 1136 mass 469.91084224171862615548889152705669
  1 settings made for mass
set atom 1137 volume 0.52756345312855468243640189029975
  1 settings made for volume
set atom 1137 mass 474.80710781569922573908115737140179
  1 settings made for mass
set atom 1138 volume 0.52230831526376031437308711247169
  1 settings made for volume
set atom 1138 mass 470.07748373738428426804603077471256
  1 settings made for mass
set atom 1139 volume 0.52101456879643082142905541331857
  1 settings made for volume
set atom 1139 mass 468.91311191678772729574120603501797
  1 settings made for mass
set atom 1140 volume 0.52112327777548228535664520677528
  1 settings made for volume
set atom 1140 mass 469.01094999793406259414041414856911
  1 settings made for mass
set atom 1141 volume 0.52376254289242996087239134794800
  1 settings made for volume
set atom 1141 mass 471.38628860318698343689902685582638
  1 settings made for mass
set atom 1142 volume 0.52891925433340980511331963498378
  1 settings made for volume
set atom 1142 mass 476.02732890006882371380925178527832
  1 settings made for mass
set atom 1143 volume 0.51905878447433839717461978580104
  1 settings made for volume
set atom 1143 mass 467.15290602690453169998363591730595
  1 settings made for mass
set atom 1144 volume 0.52242633418791384336543615063420
  1 settings made for volume
set atom 1144 mass 470.18370076912248123335302807390690
  1 settings made for mass
set atom 1145 volume 0.52585799253603804359613604901824
  1 settings made for volume
set atom 1145 mass 473.27219328243421614388353191316128
  1 settings made for mass
set atom 1146 volume 0.52445243028869725776530685834587
  1 settings made for volume
set atom 1146 mass 472.00718725982756041048560291528702
  1 settings made for mass
set atom 1147 volume 0.52499288633800167414023007950163
  1 settings made for volume
set atom 1147 mass 472.49359770420153381564887240529060
  1 settings made for mass
set atom 1148 volume 0.52914473114324911406924911716487
  1 settings made for volume
set atom 1148 mass 476.23025802892419733325368724763393
  1 settings made for mass
set atom 1149 volume 0.52430420095524088441862886611489
  1 settings made for volume
set atom 1149 mass 471.87378085971681684895884245634079
  1 settings made for mass
set atom 1150 volume 0.51892591760618578256014643557137
  1 settings made for volume
set atom 1150 mass 467.03332584556721940316492691636086
  1 settings made for mass
set atom 1151 volume 0.52294828738164311765501679474255
  1 settings made for volume
set atom 1151 mass 470.65345864347881388312089256942272
  1 settings made for mass
set atom 1152 volume 0.52334847192321687359140014450531
  1 settings made for volume
set atom 1152 mass 471.01362473089517379776225425302982
  1 settings made for mass
set atom 1153 volume 0.52077079069612430828328797360882
  1 settings made for volume
set atom 1153 mass 468.69371162651185613867710344493389
  1 settings made for mass
set atom 1154 volume 0.52506522167751679130986985910567
  1 settings made for volume
set atom 1154 mass 472.55869950976511972839944064617157
  1 settings made for mass
set atom 1155 volume 0.52696586167213810281140240476816
  1 settings made for volume
set atom 1155 mass 474.26927550492428053985349833965302
  1 settings made for mass
set atom 1156 volume 0.52190116955722132274786417838186
  1 settings made for volume
set atom 1156 mass 469.71105260149920468393247574567795
  1 settings made for mass
set atom 1157 volume 0.52625929728848308553068591209012
  1 settings made for volume
set atom 1157 mass 473.63336755963479163256124593317509
  1 settings made for mass
set atom 1158 volume 0.52770650569086163805820888228482
  1 settings made for volume
set atom 1158 mass 474.93585512177548935142112895846367
  1 settings made for mass
set atom 1159 volume 0.52335472980849173652018180291634
  1 settings made for volume
set atom 1159 mass 471.01925682764255043366574682295322
  1 settings made for mass
set atom 1160 volume 0.51861845701530207009000150719658
  1 settings made for volume
set atom 1160 mass 466.75661131377188439728342927992344
  1 settings made for mass
set atom 1161 volume 0.51973034690323960393953939274070
  1 settings made for volume
set atom 1161 mass 467.75731221291562178521417081356049
  1 settings made for mass
set atom 1162 volume 0.52143066387431835639887367506162
  1 settings made for volume
set atom 1162 mass 469.28759748688651143311290070414543
  1 settings made for mass
set atom 1163 volume 0.52124022048295171050114049648982
  1 settings made for volume
set atom 1163 mass 469.11619843465655321779195219278336
  1 settings made for mass
set atom 1164 volume 0.52022392868927225251240997749846
  1 settings made for volume
set atom 1164 mass 468.20153582034504324838053435087204
  1 settings made for mass
set atom 1165 volume 0.51778123755052030130485718473210
  1 settings made for volume
set atom 1165 mass 466.00311379546826628939015790820122
  1 settings made for mass
set atom 1166 volume 0.52096024710470234531101141328691
  1 settings made for volume
set atom 1166 mass 468.86422239423211522080237045884132
  1 settings made for mass
set atom 1167 volume 0.52285017298351210701667923785863
  1 settings made for volume
set atom 1167 mass 470.56515568516090297634946182370186
  1 settings made for mass
set atom 1168 volume 0.52483830852229562680122398887761
  1 settings made for volume
set atom 1168 mass 472.35447767006604635753319598734379
  1 settings made for mass
set atom 1169 volume 0.52411206447699831834086126036709
  1 settings made for volume
set atom 1169 mass 471.70085802929850160580826923251152
  1 settings made for mass
set atom 1170 volume 0.52287132044408546338587484569871
  1 settings made for volume
set atom 1170 mass 470.58418839967691837955499067902565
  1 settings made for mass
set atom 1171 volume 0.52406674434108557747435952478554
  1 settings made for volume
set atom 1171 mass 471.66006990697701439785305410623550
  1 settings made for mass
set atom 1172 volume 0.52241562848687039810613441659370
  1 settings made for volume
set atom 1172 mass 470.17406563818337872362462803721428
  1 settings made for mass
set atom 1173 volume 0.52192416245034756183684976349468
  1 settings made for volume
set atom 1173 mass 469.73174620531278833368560299277306
  1 settings made for mass
set atom 1174 volume 0.52489856063838591371251141026733
  1 settings made for volume
set atom 1174 mass 472.40870457454730058088898658752441
  1 settings made for mass
set atom 1175 volume 0.52904073003366769434308025665814
  1 settings made for volume
set atom 1175 mass 476.13665703030090980973909609019756
  1 settings made for mass
set atom 1176 volume 0.52891810767942581961165160464589
  1 settings made for volume
set atom 1176 mass 476.02629691148325719041167758405209
  1 settings made for mass
set atom 1177 volume 0.52276475042181835828358771323110
  1 settings made for volume
set atom 1177 mass 470.48827537963654776831390336155891
  1 settings made for mass
set atom 1178 volume 0.52466899873154415612219736431143
  1 settings made for volume
set atom 1178 mass 472.20209885838971786142792552709579
  1 settings made for mass
set atom 1179 volume 0.52038669787913260922351810222608
  1 settings made for volume
set atom 1179 mass 468.34802809121936206793179735541344
  1 settings made for mass
set atom 1180 volume 0.52503993225171863290512419553124
  1 settings made for volume
set atom 1180 mass 472.53593902654677094687940552830696
  1 settings made for mass
set atom 1181 volume 0.52269274957872535747327447097632
  1 settings made for volume
set atom 1181 mass 470.42347462085280085375416092574596
  1 settings made for mass
set atom 1182 volume 0.52479447047932381575918725502561
  1 settings made for volume
set atom 1182 mass 472.31502343139140975836198776960373
  1 settings made for mass
set atom 1183 volume 0.52653313291352887848262298575719
  1 settings made for volume
set atom 1183 mass 473.87981962217600084841251373291016
  1 settings made for mass
set atom 1184 volume 0.52584481601578281217967969496385
  1 settings made for volume
set atom 1184 mass 473.26033441420452163583831861615181
  1 settings made for mass
set atom 1185 volume 0.52323674595945046661427113576792
  1 settings made for volume
set atom 1185 mass 470.91307136350542350555770099163055
  1 settings made for mass
set atom 1186 volume 0.52592767233875692411970703687984
  1 settings made for volume
set atom 1186 mass 473.33490510488121572052477858960629
  1 settings made for mass
set atom 1187 volume 0.52151561297550319551419306662865
  1 settings made for volume
set atom 1187 mass 469.36405167795288662091479636728764
  1 settings made for mass
set atom 1188 volume 0.52652713625982949796622278881841
  1 settings made for volume
set atom 1188 mass 473.87442263384656371272285468876362
  1 settings made for mass
set atom 1189 volume 0.51863976206555340020543098944472
  1 settings made for volume
set atom 1189 mass 466.77578585899806284942314960062504
  1 settings made for mass
set atom 1190 volume 0.51788257582360774922136670284090
  1 settings made for volume
set atom 1190 mass 466.09431824124698096056818030774593
  1 settings made for mass
set atom 1191 volume 0.52317628274266747556708878619247
  1 settings made for volume
set atom 1191 mass 470.85865446840074355350225232541561
  1 settings made for mass
set atom 1192 volume 0.52257980401927905944603480747901
  1 settings made for volume
set atom 1192 mass 470.32182361735112863243557512760162
  1 settings made for mass
set atom 1193 volume 0.51813006479602541354267941642320
  1 settings made for volume
set atom 1193 mass 466.31705831642284465488046407699585
  1 settings made for mass
set atom 1194 volume 0.52475453130360183440217269890127
  1 settings made for volume
set atom 1194 mass 472.27907817324165762329357676208019
  1 settings made for mass
set atom 1195 volume 0.51831914985840654708226793445647
  1 settings made for volume
set atom 1195 mass 466.48723487256586395233171060681343
  1 settings made for mass
set atom 1196 volume 0.52180255558552601780064605918596
  1 settings made for volume
set atom 1196 mass 469.62230002697339159567491151392460
  1 settings made for mass
set atom 1197 volume 0.52621319856649673152304558243486
  1 settings made for volume
set atom 1197 mass 473.59187870984703749854816123843193
  1 settings made for mass
set atom 1198 volume 0.52558984091910299074612566982978
  1 settings made for volume
set atom 1198 mass 473.03085682719267879292601719498634
  1 settings made for mass
set atom 1199 volume 0.52212862563809936400360811603605
  1 settings made for volume
set atom 1199 mass 469.91576307428942982369335368275642
  1 settings made for mass
set atom 1200 volume 0.52474103369419533571260672033532
  1 settings made for volume
set atom 1200 mass 472.26693032477578526595607399940491
  1 settings made for mass
set atom 1201 volume 0.51837476969733919940352961930330
  1 settings made for volume
set atom 1201 mass 466.53729272760529056540690362453461
  1 settings made for mass
set atom 1202 volume 0.52388258613300786592503754945938
  1 settings made for volume
set atom 1202 mass 471.49432751970709887245902791619301
  1 settings made for mass
set atom 1203 volume 0.52045673468156095076153633272042
  1 settings made for volume
set atom 1203 mass 468.41106121340487788984319195151329
  1 settings made for mass
set atom 1204 volume 0.52155702399246972600366234473768
  1 settings made for volume
set atom 1204 mass 469.40132159322274674195796251296997
  1 settings made for mass
set atom 1205 volume 0.52412944776920822320676052186172
  1 settings made for volume
set atom 1205 mass 471.71650299228741687329602427780628
  1 settings made for mass
set atom 1206 volume 0.52608713694270714533729460526956
  1 settings made for volume
set atom 1206 mass 473.47842324843645656073931604623795
  1 settings made for mass
set atom 1207 volume 0.52373759940814768043537696939893
  1 settings made for volume
set atom 1207 mass 471.36383946733292304998030886054039
  1 settings made for mass
set atom 1208 volume 0.51886623600811632162077557950397
  1 settings made for volume
set atom 1208 mass 466.97961240730467125104041770100594
  1 settings made for mass
set atom 1209 volume 0.53061276193760775754526548553258
  1 settings made for volume
set atom 1209 mass 477.55148574384696757988422177731991
  1 settings made for mass
set atom 1210 volume 0.52244245611623751912588886625599
  1 settings made for volume
set atom 1210 mass 470.19821050461376898965681903064251
  1 settings made for mass
set atom 1211 volume 0.51970640350993924094780140876537
  1 settings made for volume
set atom 1211 mass 467.73576315894530353034497238695621
  1 settings made for mass
set atom 1212 volume 0.52136741116626672543077347654616
  1 settings made for volume
set atom 1212 mass 469.23067004964002535416511818766594
  1 settings made for mass
set atom 1213 volume 0.52124228460204546919953827455174
  1 settings made for volume
set atom 1213 mass 469.11805614184089563423185609281063
  1 settings made for mass
set atom 1214 volume 0.52185858825675102146135486691492
  1 settings made for volume
set atom 1214 mass 469.67272943107593619060935452580452
  1 settings made for mass
set atom 1215 volume 0.52396833954040078484837295036414
  1 settings made for volume
set atom 1215 mass 471.57150558636072901208535768091679
  1 settings made for mass
set atom 1216 volume 0.51919795472678353931428318901453
  1 settings made for volume
set atom 1216 mass 467.27815925410516229021595790982246
  1 settings made for mass
set atom 1217 volume 0.52335082865804227747474897114444
  1 settings made for volume
set atom 1217 mass 471.01574579223802174965385347604752
  1 settings made for mass
set atom 1218 volume 0.52442334991103234376197406163556
  1 settings made for volume
set atom 1218 mass 471.98101491992912315254216082394123
  1 settings made for mass
set atom 1219 volume 0.51928545840418338652710872338503
  1 settings made for volume
set atom 1219 mass 467.35691256376503588398918509483337
  1 settings made for mass
set atom 1220 volume 0.52273720342624185875024522829335
  1 settings made for volume
set atom 1220 mass 470.46348308361768886243226006627083
  1 settings made for mass
set atom 1221 volume 0.52633032473994023625607496796874
  1 settings made for volume
set atom 1221 mass 473.69729226594620286050485447049141
  1 settings made for mass
set atom 1222 volume 0.52624197887372892168400539958384
  1 settings made for volume
set atom 1222 mass 473.61778098635602418653434142470360
  1 settings made for mass
set atom 1223 volume 0.52354474898100866742112202700810
  1 settings made for volume
set atom 1223 mass 471.19027408290781977484584785997868
  1 settings made for mass
set atom 1224 volume 0.52302482249894199917150672263233
  1 settings made for volume
set atom 1224 mass 470.72234024904781790610286407172680
  1 settings made for mass
set atom 1225 volume 0.52040992125472629314941741540679
  1 settings made for volume
set atom 1225 mass 468.36892912925367227217066101729870
  1 settings made for mass
set atom 1226 volume 0.52550467200728601113723925664090
  1 settings made for volume
set atom 1226 mass 472.95420480655741357622900977730751
  1 settings made for mass
set atom 1227 volume 0.52694886206956248475563597821747
  1 settings made for volume
set atom 1227 mass 474.25397586260623938869684934616089
  1 settings made for mass
set atom 1228 volume 0.52521118148618006760131038390682
  1 settings made for volume
set atom 1228 mass 472.69006333756203730445122346282005
  1 settings made for mass
set atom 1229 volume 0.52615456435040408589287608265295
  1 settings made for volume
set atom 1229 mass 473.53910791536367241860716603696346
  1 settings made for mass
set atom 1230 volume 0.52133910228656232810351411899319
  1 settings made for volume
set atom 1230 mass 469.20519205790611749762319959700108
  1 settings made for mass
set atom 1231 volume 0.52232212772946995382739032720565
  1 settings made for volume
set atom 1231 mass 470.08991495652293224338791333138943
  1 settings made for mass
set atom 1232 volume 0.52288461264899166458519630396040
  1 settings made for volume
set atom 1232 mass 470.59615138409247947492985986173153
  1 settings made for mass
set atom 1233 volume 0.51929629301436464050567565209349
  1 settings made for volume
set atom 1233 mass 467.36666371292818666915991343557835
  1 settings made for mass
set atom 1234 volume 0.52276637573007467274521786748664
  1 settings made for volume
set atom 1234 mass 470.48973815706722234608605504035950
  1 settings made for mass
set atom 1235 volume 0.52307271113612507917878247098997
  1 settings made for volume
set atom 1235 mass 470.76544002251256415547686628997326
  1 settings made for mass
set atom 1236 volume 0.52499708196035943519319744154927
  1 settings made for volume
set atom 1236 mass 472.49737376432346991350641474127769
  1 settings made for mass
set atom 1237 volume 0.52813102979207915410597706795670
  1 settings made for volume
set atom 1237 mass 475.31792681287123514266568236052990
  1 settings made for mass
set atom 1238 volume 0.52487238783803680242101563635515
  1 settings made for volume
set atom 1238 mass 472.38514905423312484344933182001114
  1 settings made for mass
set atom 1239 volume 0.52077804717048681304447654838441
  1 settings made for volume
set atom 1239 mass 468.70024245343813618092099204659462
  1 settings made for mass
set atom 1240 volume 0.52833235046559867686966072142241
  1 settings made for volume
set atom 1240 mass 475.49911541903878742232336662709713
  1 settings made for mass
set atom 1241 volume 0.52394634104365001014969038806157
  1 settings made for volume
set atom 1241 mass 471.55170693928499758840189315378666
  1 settings made for mass
set atom 1242 volume 0.52453422699311280652523237222340
  1 settings made for volume
set atom 1242 mass 472.08080429380152054363861680030823
  1 settings made for mass
set atom 1243 volume 0.52014057305349126192339781482588
  1 settings made for volume
set atom 1243 mass 468.12651574814213972786092199385166
  1 settings made for mass
set atom 1244 volume 0.52263773698907411979774906285456
  1 settings made for volume
set atom 1244 mass 470.37396329016672780198859982192516
  1 settings made for mass
set atom 1245 volume 0.52280191654762653286070417379960
  1 settings made for volume
set atom 1245 mass 470.52172489286385825835168361663818
  1 settings made for mass
set atom 1246 volume 0.52084662879668930379750690917717
  1 settings made for volume
set atom 1246 mass 468.76196591702034766058204695582390
  1 settings made for mass
set atom 1247 volume 0.52593541816959732404512806169805
  1 settings made for volume
set atom 1247 mass 473.34187635263759830195340327918530
  1 settings made for mass
set atom 1248 volume 0.52004369723184062923593273808365
  1 settings made for volume
set atom 1248 mass 468.03932750865658363181864842772484
  1 settings made for mass
set atom 1249 volume 0.52182736816188268758054391582846
  1 settings made for volume
set atom 1249 mass 469.64463134569439262122614309191704
  1 settings made for mass
set atom 1250 volume 0.51872905574693628505400511130574
  1 settings made for volume
set atom 1250 mass 466.85615017224267830897588282823563
  1 settings made for mass
set atom 1251 volume 0.52325898573867268837034316675272
  1 settings made for volume
set atom 1251 mass 470.93308716480544262594776228070259
  1 settings made for mass
set atom 1252 volume 0.52442060249454203191277201767662
  1 settings made for volume
set atom 1252 mass 471.97854224508785137004451826214790
  1 settings made for mass
set atom 1253 volume 0.52756639952641182222947691116133
  1 settings made for volume
set atom 1253 mass 474.80975957377063423336949199438095
  1 settings made for mass
set atom 1254 volume 0.52337388383822258663968796099653
  1 settings made for volume
set atom 1254 mass 471.03649545440032397891627624630928
  1 settings made for mass
set atom 1255 volume 0.51980811496862477927294321489171
  1 settings made for volume
set atom 1255 mass 467.82730347176232044148491695523262
  1 settings made for mass
set atom 1256 volume 0.52660253178922145078644234672538
  1 settings made for volume
set atom 1256 mass 473.94227861029929727010312490165234
  1 settings made for mass
set atom 1257 volume 0.52176484404594336563576462140190
  1 settings made for volume
set atom 1257 mass 469.58835964134902951627736911177635
  1 settings made for mass
set atom 1258 volume 0.52171321624018940354972073691897
  1 settings made for volume
set atom 1258 mass 469.54189461617045253660762682557106
  1 settings made for mass
set atom 1259 volume 0.52390619793285631011769964970881
  1 settings made for volume
set atom 1259 mass 471.51557813957066400689654983580112
  1 settings made for mass
set atom 1260 volume 0.52248030788225219289699907676550
  1 settings made for volume
set atom 1260 mass 470.23227709402698337726178579032421
  1 settings made for mass
set atom 1261 volume 0.52749017443534074178757009576657
  1 settings made for volume
set atom 1261 mass 474.74115699180669025736278854310513
  1 settings made for mass
set atom 1262 volume 0.51580251755544015423993187141605
  1 settings made for volume
set atom 1262 mass 464.22226579989614947407972067594528
  1 settings made for mass
set atom 1263 volume 0.52558546788273019512160999511252
  1 settings made for volume
set atom 1263 mass 473.02692109445717960625188425183296
  1 settings made for mass
set atom 1264 volume 0.52367427110382924748677169191069
  1 settings made for volume
set atom 1264 mass 471.30684399344630719497217796742916
  1 settings made for mass
set atom 1265 volume 0.53047944040155925460311436836491
  1 settings made for volume
set atom 1265 mass 477.43149636140333313960582017898560
  1 settings made for mass
set atom 1266 volume 0.52219928541715432412928521443973
  1 settings made for volume
set atom 1266 mass 469.97935687543889571315958164632320
  1 settings made for mass
set atom 1267 volume 0.52526166099436133460898190605803
  1 settings made for volume
set atom 1267 mass 472.73549489492518205224769189953804
  1 settings made for mass
set atom 1268 volume 0.52786300289089815862553223269060
  1 settings made for volume
set atom 1268 mass 475.07670260180833565755165182054043
  1 settings made for mass
set atom 1269 volume 0.52684735200608456828774706082186
  1 settings made for volume
set atom 1269 mass 474.16261680547609103086870163679123
  1 settings made for mass
set atom 1270 volume 0.52736581719828146130879531483515
  1 settings made for volume
set atom 1270 mass 474.62923547845332450378919020295143
  1 settings made for mass
set atom 1271 volume 0.52544986307890861887415212549968
  1 settings made for volume
set atom 1271 mass 472.90487677101776853305636905133724
  1 settings made for mass
set atom 1272 volume 0.52705707075909169478933335994952
  1 settings made for volume
set atom 1272 mass 474.35136368318251243181293830275536
  1 settings made for mass
set atom 1273 volume 0.52165651242403676679515456271474
  1 settings made for volume
set atom 1273 mass 469.49086118163307901340886019170284
  1 settings made for mass
set atom 1274 volume 0.51858083604644655828508348349715
  1 settings made for volume
set atom 1274 mass 466.72275244180190156839671544730663
  1 settings made for mass
set atom 1275 volume 0.52452449192751027240433359111194
  1 settings made for volume
set atom 1275 mass 472.07204273475923628211603499948978
  1 settings made for mass
set atom 1276 volume 0.52655868427731733483199150214205
  1 settings made for volume
set atom 1276 mass 473.90281584958557914433185942471027
  1 settings made for mass
set atom 1277 volume 0.52283790332827684288474756613141
  1 settings made for volume
set atom 1277 mass 470.55411299544914527359651401638985
  1 settings made for mass
set atom 1278 volume 0.52145783449890714678076619748026
  1 settings made for volume
set atom 1278 mass 469.31205104901641789183486253023148
  1 settings made for mass
set atom 1279 volume 0.52617645926640843612176468013786
  1 settings made for volume
set atom 1279 mass 473.55881333976759606230189092457294
  1 settings made for mass
set atom 1280 volume 0.52414722018551862525725937302923
  1 settings made for volume
set atom 1280 mass 471.73249816696676361971185542643070
  1 settings made for mass
set atom 1281 volume 0.52265693547729297208093157678377
  1 settings made for volume
set atom 1281 mass 470.39124192956364822748582810163498
  1 settings made for mass
set atom 1282 volume 0.52094165705529438259446806114283
  1 settings made for volume
set atom 1282 mass 468.84749134976493678550468757748604
  1 settings made for mass
set atom 1283 volume 0.53014645797444082120364328147843
  1 settings made for volume
set atom 1283 mass 477.13181217699673197785159572958946
  1 settings made for mass
set atom 1284 volume 0.51809775732843832418694773878087
  1 settings made for volume
set atom 1284 mass 466.28798159559448777145007625222206
  1 settings made for mass
set atom 1285 volume 0.52008324637184910610443466794095
  1 settings made for volume
set atom 1285 mass 468.07492173466420126715092919766903
  1 settings made for mass
set atom 1286 volume 0.52067634169321819204157009153278
  1 settings made for volume
set atom 1286 mass 468.60870752389638482782174833118916
  1 settings made for mass
set atom 1287 volume 0.52549628658913016820974917209242
  1 settings made for volume
set atom 1287 mass 472.94665793021715671784477308392525
  1 settings made for mass
set atom 1288 volume 0.52495001805455465682115345771308
  1 settings made for volume
set atom 1288 mass 472.45501624909917381955892778933048
  1 settings made for mass
set atom 1289 volume 0.52641544154480979234023152457667
  1 settings made for volume
set atom 1289 mass 473.77389739032884108382859267294407
  1 settings made for mass
set atom 1290 volume 0.52101415015606489244959220741293
  1 settings made for volume
set atom 1290 mass 468.91273514045838055608328431844711
  1 settings made for mass
set atom 1291 volume 0.52386143646562643994002428371459
  1 settings made for volume
set atom 1291 mass 471.47529281906378173516714014112949
  1 settings made for mass
set atom 1292 volume 0.52996365090801100805606438370887
  1 settings made for volume
set atom 1292 mass 476.96728581720992679038317874073982
  1 settings made for mass
set atom 1293 volume 0.52702695111009545403391030049534
  1 settings made for volume
set atom 1293 mass 474.32425599908589219921850599348545
  1 settings made for mass
set atom 1294 volume 0.51814002282943261157299730257364
  1 settings made for volume
set atom 1294 mass 466.32602054648936018566018901765347
  1 settings made for mass
set atom 1295 volume 0.52210862828515491873559994928655
  1 settings made for volume
set atom 1295 mass 469.89776545663943352337810210883617
  1 settings made for mass
set atom 1296 volume 0.52113547149522509993602170652593
  1 settings made for volume
set atom 1296 mass 469.02192434570258683379506692290306
  1 settings made for mass
set atom 1297 volume 0.52062512273629968362342879117932
  1 settings made for volume
set atom 1297 mass 468.56261046266973835372482426464558
  1 settings made for mass
set atom 1298 volume 0.52422693844314383060378759182640
  1 settings made for volume
set atom 1298 mass 471.80424459882942755939438939094543
  1 settings made for mass
set atom 1299 volume 0.52263531457100598220932852200349
  1 settings made for volume
set atom 1299 mass 470.37178311390539420244749635457993
  1 settings made for mass
set atom 1300 volume 0.52753545583661931583918658361654
  1 settings made for volume
set atom 1300 mass 474.78191025295740246292552910745144
  1 settings made for mass
set atom 1301 volume 0.52258391496371969786594036122551
  1 settings made for volume
set atom 1301 mass 470.32552346734775028380681760609150
  1 settings made for mass
set atom 1302 volume 0.52574170343271819927366550473380
  1 settings made for volume
set atom 1302 mass 473.16753308944635136867873370647430
  1 settings made for mass
set atom 1303 volume 0.52657870632828163159899759193650
  1 settings made for volume
set atom 1303 mass 473.92083569545349064355832524597645
  1 settings made for mass
set atom 1304 volume 0.52293715131852025468361944149365
  1 settings made for volume
set atom 1304 mass 470.64343618666822521845460869371891
  1 settings made for mass
set atom 1305 volume 0.52149278483051975108253373036860
  1 settings made for volume
set atom 1305 mass 469.34350634746778041517245583236217
  1 settings made for mass
set atom 1306 volume 0.52029262993813840676438076116028
  1 settings made for volume
set atom 1306 mass 468.26336694432455942660453729331493
  1 settings made for mass
set atom 1307 volume 0.51633119803773386280454360530712
  1 settings made for volume
set atom 1307 mass 464.69807823396047297137556597590446
  1 settings made for mass
set atom 1308 volume 0.52659807494601040822601589752594
  1 settings made for volume
set atom 1308 mass 473.93826745140938783151796087622643
  1 settings made for mass
set atom 1309 volume 0.52660870687149063940069027012214
  1 settings made for volume
set atom 1309 mass 473.94783618434155414433917030692101
  1 settings made for mass
set atom 1310 volume 0.52196621830530720576035719204810
  1 settings made for volume
set atom 1310 mass 469.76959647477650605651433579623699
  1 settings made for mass
set atom 1311 volume 0.52467780968285304687981351889903
  1 settings made for volume
set atom 1311 mass 472.21002871456772709279903210699558
  1 settings made for mass
set atom 1312 volume 0.52224722323065086992954775269027
  1 settings made for volume
set atom 1312 mass 470.02250090758576561711379326879978
  1 settings made for mass
set atom 1313 volume 0.52162263720450041670773089208524
  1 settings made for volume
set atom 1313 mass 469.46037348405036482290597632527351
  1 settings made for mass
set atom 1314 volume 0.51755328073168016533855961824884
  1 settings made for volume
set atom 1314 mass 465.79795265851214480790076777338982
  1 settings made for mass
set atom 1315 volume 0.51923835800516948690841445568367
  1 settings made for volume
set atom 1315 mass 467.31452220465251912173698656260967
  1 settings made for mass
set atom 1316 volume 0.51949124908456434379644406362786
  1 settings made for volume
set atom 1316 mass 467.54212417610790453181834891438484
  1 settings made for mass
set atom 1317 volume 0.52294541332659139065697218029527
  1 settings made for volume
set atom 1317 mass 470.65087199393224182131234556436539
  1 settings made for mass
set atom 1318 volume 0.52362738115120832649296289673657
  1 settings made for volume
set atom 1318 mass 471.26464303608747741236584261059761
  1 settings made for mass
set atom 1319 volume 0.52514524919413885228891558654141
  1 settings made for volume
set atom 1319 mass 472.63072427472496883638086728751659
  1 settings made for mass
set atom 1320 volume 0.52836296239097657601035962215974
  1 settings made for volume
set atom 1320 mass 475.52666615187894194605178199708462
  1 settings made for mass
set atom 1321 volume 0.52562623503324723550633734703297
  1 settings made for volume
set atom 1321 mass 473.06361152992252527837990783154964
  1 settings made for mass
set atom 1322 volume 0.52455771011518514956861736209248
  1 settings made for volume
set atom 1322 mass 472.10193910366660929867066442966461
  1 settings made for mass
set atom 1323 volume 0.52740635462511253894746232617763
  1 settings made for volume
set atom 1323 mass 474.66571916260130592490895651280880
  1 settings made for mass
set atom 1324 volume 0.52509445051040315455281870526960
  1 settings made for volume
set atom 1324 mass 472.58500545936283288028789684176445
  1 settings made for mass
set atom 1325 volume 0.52268691799610855763802419460262
  1 settings made for volume
set atom 1325 mass 470.41822619649769876559730619192123
  1 settings made for mass
set atom 1326 volume 0.52648766403721203310794862773037
  1 settings made for volume
set atom 1326 mass 473.83889763349083068533218465745449
  1 settings made for mass
set atom 1327 volume 0.52235908766078076315153566611116
  1 settings made for volume
set atom 1327 mass 470.12317889470267573415185324847698
  1 settings made for mass
set atom 1328 volume 0.52855291536506199268075079089613
  1 settings made for volume
set atom 1328 mass 475.69762382855577698137494735419750
  1 settings made for mass
set atom 1329 volume 0.52227858767711332621530573305790
  1 settings made for volume
set atom 1329 mass 470.05072890940198249154491350054741
  1 settings made for mass
set atom 1330 volume 0.52282447903226902941042908423697
  1 settings made for volume
set atom 1330 mass 470.54203112904212957801064476370811
  1 settings made for mass
set atom 1331 volume 0.52043987292345594841691536203143
  1 settings made for volume
set atom 1331 mass 468.39588563111033181485254317522049
  1 settings made for mass
set atom 1332 volume 0.52051838470482558740570766531164
  1 settings made for volume
set atom 1332 mass 468.46654623434301356610376387834549
  1 settings made for mass
set atom 1333 volume 0.52399803082512741436715941745206
  1 settings made for volume
set atom 1333 mass 471.59822774261465383460745215415955
  1 settings made for mass
set atom 1334 volume 0.52039840042670870712271380398306
  1 settings made for volume
set atom 1334 mass 468.35856038403784395995899103581905
  1 settings made for mass
set atom 1335 volume 0.52242099439549016803852055090829
  1 settings made for volume
set atom 1335 mass 470.17889495594113213883247226476669
  1 settings made for mass
set atom 1336 volume 0.52124513725927001939197680258076
  1 settings made for volume
set atom 1336 mass 469.12062353334300723872729577124119
  1 settings made for mass
set atom 1337 volume 0.51722038698555750091401250756462
  1 settings made for volume
set atom 1337 mass 465.49834828700176103666308335959911
  1 settings made for mass
set atom 1338 volume 0.52351500573068221466854765822063
  1 settings made for volume
set atom 1338 mass 471.16350515761399719849578104913235
  1 settings made for mass
set atom 1339 volume 0.52413561651780482542051231575897
  1 settings made for volume
set atom 1339 mass 471.72205486602433666121214628219604
  1 settings made for mass
set atom 1340 volume 0.52438717719560756780339261240442
  1 settings made for volume
set atom 1340 mass 471.94845947604682123710517771542072
  1 settings made for mass
set atom 1341 volume 0.52237581793566756349633806166821
  1 settings made for volume
set atom 1341 mass 470.13823614210082268982660025358200
  1 settings made for mass
set atom 1342 volume 0.52196272772596563616076537073241
  1 settings made for volume
set atom 1342 mass 469.76645495336907742967014200985432
  1 settings made for mass
set atom 1343 volume 0.52294868686830475734694800848956
  1 settings made for volume
set atom 1343 mass 470.65381818147426429277402348816395
  1 settings made for mass
set atom 1344 volume 0.52431891314341672050147735717474
  1 settings made for volume
set atom 1344 mass 471.88702182907502447051228955388069
  1 settings made for mass
set atom 1345 volume 0.52407556220886764020150394571829
  1 settings made for volume
set atom 1345 mass 471.66800598798084820373333059251308
  1 settings made for mass
set atom 1346 volume 0.52493135850064365222067408467410
  1 settings made for volume
set atom 1346 mass 472.43822265057929143949877470731735
  1 settings made for mass
set atom 1347 volume 0.52513489200367435838501251055277
  1 settings made for volume
set atom 1347 mass 472.62140280330692121424362994730473
  1 settings made for mass
set atom 1348 volume 0.51805272163281856911964950995753
  1 settings made for volume
set atom 1348 mass 466.24744946953671842493349686264992
  1 settings made for mass
set atom 1349 volume 0.52988396048255004266991363692796
  1 settings made for volume
set atom 1349 mass 476.89556443429501086939126253128052
  1 settings made for mass
set atom 1350 volume 0.52667763886578711218788839687477
  1 settings made for volume
set atom 1350 mass 474.00987497920840496590244583785534
  1 settings made for mass
set atom 1351 volume 0.51958694752131062699618269107305
  1 settings made for volume
set atom 1351 mass 467.62825276917953942756867036223412
  1 settings made for mass
set atom 1352 volume 0.52424987910054521300651231285883
  1 settings made for volume
set atom 1352 mass 471.82489119049068904132582247257233
  1 settings made for mass
set atom 1353 volume 0.52598333832684851518735058562015
  1 settings made for volume
set atom 1353 mass 473.38500449416363835553056560456753
  1 settings made for mass
set atom 1354 volume 0.52281173592650465042908081159112
  1 settings made for volume
set atom 1354 mass 470.53056233385416362580144777894020
  1 settings made for mass
set atom 1355 volume 0.52312441978776547113483275097678
  1 settings made for volume
set atom 1355 mass 470.81197780898889959644293412566185
  1 settings made for mass
set atom 1356 volume 0.52174006023147745381152162735816
  1 settings made for volume
set atom 1356 mass 469.56605420832971731215366162359715
  1 settings made for mass
set atom 1357 volume 0.52303098898297084584640970206237
  1 settings made for volume
set atom 1357 mass 470.72789008467378835121053270995617
  1 settings made for mass
set atom 1358 volume 0.52313225328449808326780612333096
  1 settings made for volume
set atom 1358 mass 470.81902795604827360875788144767284
  1 settings made for mass
set atom 1359 volume 0.52487434636846086455364002176793
  1 settings made for volume
set atom 1359 mass 472.38691173161475944652920588850975
  1 settings made for mass
set atom 1360 volume 0.52045937640258876921706132634426
  1 settings made for volume
set atom 1360 mass 468.41343876232991760844015516340733
  1 settings made for mass
set atom 1361 volume 0.52066386403817577210872968862532
  1 settings made for volume
set atom 1361 mass 468.59747763435819933874881826341152
  1 settings made for mass
set atom 1362 volume 0.52294731664724369846197760125506
  1 settings made for volume
set atom 1362 mass 470.65258498251932905986905097961426
  1 settings made for mass
set atom 1363 volume 0.52210582293986140811625773494598
  1 settings made for volume
set atom 1363 mass 469.89524064587527618641615845263004
  1 settings made for mass
set atom 1364 volume 0.52108187745694856118916504783556
  1 settings made for volume
set atom 1364 mass 468.97368971125371217567590065300465
  1 settings made for mass
set atom 1365 volume 0.52348292699717979825635438828613
  1 settings made for volume
set atom 1365 mass 471.13463429746184374380391091108322
  1 settings made for mass
set atom 1366 volume 0.51888884491534359444386836912599
  1 settings made for volume
set atom 1366 mass 466.99996042380922744996496476233006
  1 settings made for mass
set atom 1367 volume 0.52125759025383389122509925073246
  1 settings made for volume
set atom 1367 mass 469.13183122845049410898354835808277
  1 settings made for mass
set atom 1368 volume 0.52091876001832360110199715563795
  1 settings made for volume
set atom 1368 mass 468.82688401649124898540321737527847
  1 settings made for mass
set atom 1369 volume 0.52461666985100707805145248130430
  1 settings made for volume
set atom 1369 mass 472.15500286590639689165982417762280
  1 settings made for mass
set atom 1370 volume 0.52610712800544046086059779554489
  1 settings made for volume
set atom 1370 mass 473.49641520489643653490929864346981
  1 settings made for mass
set atom 1371 volume 0.52649328627904579125384998405934
  1 settings made for volume
set atom 1371 mass 473.84395765114123832972836680710316
  1 settings made for mass
set atom 1372 volume 0.52118510612847368523858904154622
  1 settings made for volume
set atom 1372 mass 469.06659551562631804699776694178581
  1 settings made for mass
set atom 1373 volume 0.52739791699547566850014845840633
  1 settings made for volume
set atom 1373 mass 474.65812529592813007184304296970367
  1 settings made for mass
set atom 1374 volume 0.52021683217947900512712067211396
  1 settings made for volume
set atom 1374 mass 468.19514896153111749299569055438042
  1 settings made for mass
set atom 1375 volume 0.52336815768476285803956216113875
  1 settings made for volume
set atom 1375 mass 471.03134191628657845285488292574883
  1 settings made for mass
set atom 1376 volume 0.52411410096393351576438135452918
  1 settings made for volume
set atom 1376 mass 471.70269086754018417195766232907772
  1 settings made for mass
set atom 1377 volume 0.52145345075094973186224933670019
  1 settings made for volume
set atom 1377 mass 469.30810567585473336293944157660007
  1 settings made for mass
set atom 1378 volume 0.52432719348124912084330162542756
  1 settings made for volume
set atom 1378 mass 471.89447413312421986120170913636684
  1 settings made for mass
set atom 1379 volume 0.52764660084382364324540048983181
  1 settings made for volume
set atom 1379 mass 474.88194075944130645439145155251026
  1 settings made for mass
set atom 1380 volume 0.52393556657748385774198141007219
  1 settings made for volume
set atom 1380 mass 471.54200991973544887514435686171055
  1 settings made for mass
set atom 1381 volume 0.52390913366397251493822295742575
  1 settings made for volume
set atom 1381 mass 471.51822029757528298432589508593082
  1 settings made for mass
set atom 1382 volume 0.52440791200205549849044928123476
  1 settings made for volume
set atom 1382 mass 471.96712080184994420051225461065769
  1 settings made for mass
set atom 1383 volume 0.52444484864710061433612509063096
  1 settings made for volume
set atom 1383 mass 472.00036378239053647121181711554527
  1 settings made for mass
set atom 1384 volume 0.53019847494960170575239999379846
  1 settings made for volume
set atom 1384 mass 477.17862745464151430496713146567345
  1 settings made for mass
set atom 1385 volume 0.52454049110503786490511402007542
  1 settings made for volume
set atom 1385 mass 472.08644199453408418776234611868858
  1 settings made for mass
set atom 1386 volume 0.52386625655018093095094400268863
  1 settings made for volume
set atom 1386 mass 471.47963089516281343094306066632271
  1 settings made for mass
set atom 1387 volume 0.51921982957126933122538048337447
  1 settings made for volume
set atom 1387 mass 467.29784661414237234566826373338699
  1 settings made for mass
set atom 1388 volume 0.52643777406451908174034315379686
  1 settings made for volume
set atom 1388 mass 473.79399665806715802318649366497993
  1 settings made for mass
set atom 1389 volume 0.52826479064469888946575792942895
  1 settings made for volume
set atom 1389 mass 475.43831158022902627635630778968334
  1 settings made for mass
set atom 1390 volume 0.52314592976475404739744590187911
  1 settings made for volume
set atom 1390 mass 470.83133678827863377591711468994617
  1 settings made for mass
set atom 1391 volume 0.52989936283727900878659511363367
  1 settings made for volume
set atom 1391 mass 476.90942655355109991432982496917248
  1 settings made for mass
set atom 1392 volume 0.51483869688107086748374285889440
  1 settings made for volume
set atom 1392 mass 463.35482719296379627849091775715351
  1 settings made for mass
set atom 1393 volume 0.52367839461901988240555283482536
  1 settings made for volume
set atom 1393 mass 471.31055515711790349087095819413662
  1 settings made for mass
set atom 1394 volume 0.52387230691501052159964046950336
  1 settings made for volume
set atom 1394 mass 471.48507622350945212019723840057850
  1 settings made for mass
set atom 1395 volume 0.52362077147710917035539068820071
  1 settings made for volume
set atom 1395 mass 471.25869432939828129747183993458748
  1 settings made for mass
set atom 1396 volume 0.52437145536394358380505309469299
  1 settings made for volume
set atom 1396 mass 471.93430982754921387822832912206650
  1 settings made for mass
set atom 1397 volume 0.52540147712150353509485967151704
  1 settings made for volume
set atom 1397 mass 472.86132940935317492403555661439896
  1 settings made for mass
set atom 1398 volume 0.51998429214175734269787199082202
  1 settings made for volume
set atom 1398 mass 467.98586292758159288496244698762894
  1 settings made for mass
set atom 1399 volume 0.52094338615211266407811763201607
  1 settings made for volume
set atom 1399 mass 468.84904753690142342748004011809826
  1 settings made for mass
set atom 1400 volume 0.52699682933435409992739550943952
  1 settings made for volume
set atom 1400 mass 474.29714640091867750015808269381523
  1 settings made for mass
set atom 1401 volume 0.52595003121922889732786643435247
  1 settings made for volume
set atom 1401 mass 473.35502809730598983151139691472054
  1 settings made for mass
set atom 1402 volume 0.51925222622979438913404237609939
  1 settings made for volume
set atom 1402 mass 467.32700360681496931647416204214096
  1 settings made for mass
set atom 1403 volume 0.52354534127140328614302688947646
  1 settings made for volume
set atom 1403 mass 471.19080714426297618047101423144341
  1 settings made for mass
set atom 1404 volume 0.52195769447061157730871627791203
  1 settings made for volume
set atom 1404 mass 469.76192502355041824557702057063580
  1 settings made for mass
set atom 1405 volume 0.52738657828586676945548106232309
  1 settings made for volume
set atom 1405 mass 474.64792045728006542049115523695946
  1 settings made for mass
set atom 1406 volume 0.52499461757395449179597335387371
  1 settings made for volume
set atom 1406 mass 472.49515581655901996782631613314152
  1 settings made for mass
set atom 1407 volume 0.52348835118991421389011975406902
  1 settings made for volume
set atom 1407 mass 471.13951607092280937649775296449661
  1 settings made for mass
set atom 1408 volume 0.52271805650181046853930411089095
  1 settings made for volume
set atom 1408 mass 470.44625085162942923489026725292206
  1 settings made for mass
set atom 1409 volume 0.51896813563938093416538777091773
  1 settings made for volume
set atom 1409 mass 467.07132207544282209710218012332916
  1 settings made for mass
set atom 1410 volume 0.52476595560377492510895081068156
  1 settings made for volume
set atom 1410 mass 472.28936004339743703894782811403275
  1 settings made for mass
set atom 1411 volume 0.52178580931942220022534684176208
  1 settings made for volume
set atom 1411 mass 469.60722838748000640407553873956203
  1 settings made for mass
set atom 1412 volume 0.52429069829021446302874664979754
  1 settings made for volume
set atom 1412 mass 471.86162846119299274505465291440487
  1 settings made for mass
set atom 1413 volume 0.52510271848207035194633363062167
  1 settings made for volume
set atom 1413 mass 472.59244663386328966225846670567989
  1 settings made for mass
set atom 1414 volume 0.52865996002270965181679684974370
  1 settings made for volume
set atom 1414 mass 475.79396402043869329645531252026558
  1 settings made for mass
set atom 1415 volume 0.53072381094050480321300256036920
  1 settings made for volume
set atom 1415 mass 477.65142984645433443802176043391228
  1 settings made for mass
set atom 1416 volume 0.52317274948819025848223418506677
  1 settings made for volume
set atom 1416 mass 470.85547453937124373624101281166077
  1 settings made for mass
set atom 1417 volume 0.52310550215487350289578216688824
  1 settings made for volume
set atom 1417 mass 470.79495193938618058382417075335979
  1 settings made for mass
set atom 1418 volume 0.52373342258282673533642537222477
  1 settings made for volume
set atom 1418 mass 471.36008032454407157274545170366764
  1 settings made for mass
set atom 1419 volume 0.52783238075930105637212363944855
  1 settings made for volume
set atom 1419 mass 475.04914268337097382755018770694733
  1 settings made for mass
set atom 1420 volume 0.52096736430357437619420579721918
  1 settings made for volume
set atom 1420 mass 468.87062787321696077924571000039577
  1 settings made for mass
set atom 1421 volume 0.52307974900415554753152491684887
  1 settings made for volume
set atom 1421 mass 470.77177410373997190617956221103668
  1 settings made for mass
set atom 1422 volume 0.52532229932373752934182675744523
  1 settings made for volume
set atom 1422 mass 472.79006939136377241084119305014610
  1 settings made for mass
set atom 1423 volume 0.52183319941747097203688099398278
  1 settings made for volume
set atom 1423 mass 469.64987947572387838590657338500023
  1 settings made for mass
set atom 1424 volume 0.52324794387508410942189129855251
  1 settings made for volume
set atom 1424 mass 470.92314948757569936788058839738369
  1 settings made for mass
set atom 1425 volume 0.52157753955228469688876202781103
  1 settings made for volume
set atom 1425 mass 469.41978559705620455133612267673016
  1 settings made for mass
set atom 1426 volume 0.51982364765269095663313692057272
  1 settings made for volume
set atom 1426 mass 467.84128288742186896342900581657887
  1 settings made for mass
set atom 1427 volume 0.52175037990951467214983949816087
  1 settings made for volume
set atom 1427 mass 469.57534191856319694124977104365826
  1 settings made for mass
set atom 1428 volume 0.52384538755698606404820338866557
  1 settings made for volume
set atom 1428 mass 471.46084880128745453475858084857464
  1 settings made for mass
set atom 1429 volume 0.52538536961547288584029047342483
  1 settings made for volume
set atom 1429 mass 472.84683265392561679618665948510170
  1 settings made for mass
set atom 1430 volume 0.52237573649909418982417719234945
  1 settings made for volume
set atom 1430 mass 470.13816284918476640086737461388111
  1 settings made for mass
set atom 1431 volume 0.51813740242919492651196833321592
  1 settings made for volume
set atom 1431 mass 466.32366218627544185437727719545364
  1 settings made for mass
set atom 1432 volume 0.52169200770507340170212273733341
  1 settings made for volume
set atom 1432 mass 469.52280693456606286417809315025806
  1 settings made for mass
set atom 1433 volume 0.51703189704915564206544331682380
  1 settings made for volume
set atom 1433 mass 465.32870734424005831897375173866749
  1 settings made for mass
set atom 1434 volume 0.53024351321663121261451578902779
  1 settings made for volume
set atom 1434 mass 477.21916189496806737224687822163105
  1 settings made for mass
set atom 1435 volume 0.52615195711067541672889547044178
  1 settings made for volume
set atom 1435 mass 473.53676139960788304961170069873333
  1 settings made for mass
set atom 1436 volume 0.51999731422169515049347410240443
  1 settings made for volume
set atom 1436 mass 467.99758279952561679237987846136093
  1 settings made for mass
set atom 1437 volume 0.52240105696890570818879950820701
  1 settings made for volume
set atom 1437 mass 470.16095127201515424530953168869019
  1 settings made for mass
set atom 1438 volume 0.52716074861518225080914135105559
  1 settings made for volume
set atom 1438 mass 474.44467375366400574421277269721031
  1 settings made for mass
set atom 1439 volume 0.52166428672996878468381964921718
  1 settings made for volume
set atom 1439 mass 469.49785805697189289276138879358768
  1 settings made for mass
set atom 1440 volume 0.51951894291160205519020109932171
  1 settings made for volume
set atom 1440 mass 467.56704862044182391400681808590889
  1 settings made for mass
set atom 1441 volume 0.52070886591784271146821083675604
  1 settings made for volume
set atom 1441 mass 468.63797932605842788689187727868557
  1 settings made for mass
set atom 1442 volume 0.52340320785521032842524391526240
  1 settings made for volume
set atom 1442 mass 471.06288706968928181595401838421822
  1 settings made for mass
set atom 1443 volume 0.52596361167474547926303785061464
  1 settings made for volume
set atom 1443 mass 473.36725050727091002045199275016785
  1 settings made for mass
set atom 1444 volume 0.52279474768798495087906985645532
  1 settings made for volume
set atom 1444 mass 470.51527291918642958989948965609074
  1 settings made for mass
set atom 1445 volume 0.52617489821450136311398182442645
  1 settings made for volume
set atom 1445 mass 473.55740839305121880897786468267441
  1 settings made for mass
set atom 1446 volume 0.52186393986447165982411888762726
  1 settings made for volume
set atom 1446 mass 469.67754587802448895672569051384926
  1 settings made for mass
set atom 1447 volume 0.52697099405259129056844358274247
  1 settings made for volume
set atom 1447 mass 474.27389464733215618252870626747608
  1 settings made for mass
set atom 1448 volume 0.51616283101008875178195012267679
  1 settings made for volume
set atom 1448 mass 464.54654790907989081460982561111450
  1 settings made for mass
set atom 1449 volume 0.52435377490327073068954177870182
  1 settings made for volume
set atom 1449 mass 471.91839741294364785062498413026333
  1 settings made for mass
set atom 1450 volume 0.52094244746132578605113394587534
  1 settings made for volume
set atom 1450 mass 468.84820271519322432141052559018135
  1 settings made for mass
set atom 1451 volume 0.52113317723460772512567018566187
  1 settings made for volume
set atom 1451 mass 469.01985951114693307317793369293213
  1 settings made for mass
set atom 1452 volume 0.52191809775768127632744608490611
  1 settings made for volume
set atom 1452 mass 469.72628798191317400778643786907196
  1 settings made for mass
set atom 1453 volume 0.52599658674587479456619121265248
  1 settings made for volume
set atom 1453 mass 473.39692807128733420540811493992805
  1 settings made for mass
set atom 1454 volume 0.52140581787530382307238596695242
  1 settings made for volume
set atom 1454 mass 469.26523608777341678433003835380077
  1 settings made for mass
set atom 1455 volume 0.52378365655048386706482688168762
  1 settings made for volume
set atom 1455 mass 471.40529089543548479923629201948643
  1 settings made for mass
set atom 1456 volume 0.52454811427406244916937794187106
  1 settings made for volume
set atom 1456 mass 472.09330284665622912143589928746223
  1 settings made for mass
set atom 1457 volume 0.52433914158579597586395948383142
  1 settings made for volume
set atom 1457 mass 471.90522742721640270247007720172405
  1 settings made for mass
set atom 1458 volume 0.52783458113147319057389950103243
  1 settings made for volume
set atom 1458 mass 475.05112301832588173056137748062611
  1 settings made for mass
set atom 1459 volume 0.52228582371208154278008350956952
  1 settings made for volume
set atom 1459 mass 470.05724134087336096854414790868759
  1 settings made for mass
set atom 1460 volume 0.52370469740477454401172963116551
  1 settings made for volume
set atom 1460 mass 471.33422766429708872237824834883213
  1 settings made for mass
set atom 1461 volume 0.52045368053439244881985814572545
  1 settings made for volume
set atom 1461 mass 468.40831248095321370783494785428047
  1 settings made for mass
set atom 1462 volume 0.52161287077734053152511251028045
  1 settings made for volume
set atom 1462 mass 469.45158369960648769847466610372066
  1 settings made for mass
set atom 1463 volume 0.51833239678086773238874229718931
  1 settings made for volume
set atom 1463 mass 466.49915710278094138629967346787453
  1 settings made for mass
set atom 1464 volume 0.52342139425519651485529948331532
  1 settings made for volume
set atom 1464 mass 471.07925482967687003110768273472786
  1 settings made for mass
set atom 1465 volume 0.52408949583074793121539869389380
  1 settings made for volume
set atom 1465 mass 471.68054624767313498523435555398464
  1 settings made for mass
set atom 1466 volume 0.52107252522331759525542338451487
  1 settings made for volume
set atom 1466 mass 468.96527270098584949664655141532421
  1 settings made for mass
set atom 1467 volume 0.52815634032490477167698372795712
  1 settings made for volume
set atom 1467 mass 475.34070629241426786393276415765285
  1 settings made for mass
set atom 1468 volume 0.52419783513483386716558243278996
  1 settings made for volume
set atom 1468 mass 471.77805162135047112315078265964985
  1 settings made for mass
set atom 1469 volume 0.52462344843625419166244228108553
  1 settings made for volume
set atom 1469 mass 472.16110359262876272623543627560139
  1 settings made for mass
set atom 1470 volume 0.51726657025015787549904189290828
  1 settings made for volume
set atom 1470 mass 465.53991322514207240601535886526108
  1 settings made for mass
set atom 1471 volume 0.52430858231252630563545835684636
  1 settings made for volume
set atom 1471 mass 471.87772408127369772046222351491451
  1 settings made for mass
set atom 1472 volume 0.51579589196454456168083879674668
  1 settings made for volume
set atom 1472 mass 464.21630276809008819327573291957378
  1 settings made for mass
set atom 1473 volume 0.52079963892326264218723963494995
  1 settings made for volume
set atom 1473 mass 468.71967503093640061706537380814552
  1 settings made for mass
set atom 1474 volume 0.52378978969761424977491515164729
  1 settings made for volume
set atom 1474 mass 471.41081072785283367920783348381519
  1 settings made for mass
set atom 1475 volume 0.52342614309794499583006199827651
  1 settings made for volume
set atom 1475 mass 471.08352878815048825345002114772797
  1 settings made for mass
set atom 1476 volume 0.52239953979490894031556535992422
  1 settings made for volume
set atom 1476 mass 470.15958581541804051084909588098526
  1 settings made for mass
set atom 1477 volume 0.52528576781603619760829815277248
  1 settings made for volume
set atom 1477 mass 472.75719103443259427876910194754601
  1 settings made for mass
set atom 1478 volume 0.52075674853517994744578345489572
  1 settings made for volume
set atom 1478 mass 468.68107368166192827629856765270233
  1 settings made for mass
set atom 1479 volume 0.52595491036132335782582458705292
  1 settings made for volume
set atom 1479 mass 473.35941932519102692822343669831753
  1 settings made for mass
set atom 1480 volume 0.52283036651658088000971247311099
  1 settings made for volume
set atom 1480 mass 470.54732986492280133461463265120983
  1 settings made for mass
set atom 1481 volume 0.52304258721103824569809148670174
  1 settings made for volume
set atom 1481 mass 470.73832848993441757556865923106670
  1 settings made for mass
set atom 1482 volume 0.52134447850157705772744520800188
  1 settings made for volume
set atom 1482 mass 469.21003065141934484927332960069180
  1 settings made for mass
set atom 1483 volume 0.52754786003059361831901696859859
  1 settings made for volume
set atom 1483 mass 474.79307402753426003982895053923130
  1 settings made for mass
set atom 1484 volume 0.52250168518943029827283908161917
  1 settings made for volume
set atom 1484 mass 470.25151667048726267239544540643692
  1 settings made for mass
set atom 1485 volume 0.52483891920728809044049967269530
  1 settings made for volume
set atom 1485 mass 472.35502728655927739964681677520275
  1 settings made for mass
set atom 1486 volume 0.51855957874835012511027798609575
  1 settings made for volume
set atom 1486 mass 466.70362087351509217114653438329697
  1 settings made for mass
set atom 1487 volume 0.52708406589988843204963586686063
  1 settings made for volume
set atom 1487 mass 474.37565930989956086705205962061882
  1 settings made for mass
set atom 1488 volume 0.52004713600336804901758114283439
  1 settings made for volume
set atom 1488 mass 468.04242240303125299760722555220127
  1 settings made for mass
set atom 1489 volume 0.52733400169755606512467238644604
  1 settings made for volume
set atom 1489 mass 474.60060152780044973042095080018044
  1 settings made for mass
set atom 1490 volume 0.52296434812931325009088823208003
  1 settings made for volume
set atom 1490 mass 470.66791331638194151310017332434654
  1 settings made for mass
set atom 1491 volume 0.52248399279666923877840645218384
  1 settings made for volume
set atom 1491 mass 470.23559351700231445647659711539745
  1 settings made for mass
set atom 1492 volume 0.52304388255211231584240749725723
  1 settings made for volume
set atom 1492 mass 470.73949429690105716872494667768478
  1 settings made for mass
set atom 1493 volume 0.52551857935998724791204494977137
  1 settings made for volume
set atom 1493 mass 472.96672142398853111444623209536076
  1 settings made for mass
set atom 1494 volume 0.52272681793917941117655345806270
  1 settings made for volume
set atom 1494 mass 470.45413614526148649019887670874596
  1 settings made for mass
set atom 1495 volume 0.51880651752198192472320670276531
  1 settings made for volume
set atom 1495 mass 466.92586576978374068858101963996887
  1 settings made for mass
set atom 1496 volume 0.52396615407884494786117102194112
  1 settings made for volume
set atom 1496 mass 471.56953867096046906226547434926033
  1 settings made for mass
set atom 1497 volume 0.51928231200579433313180288678268
  1 settings made for volume
set atom 1497 mass 467.35408080521489182501682080328465
  1 settings made for mass
set atom 1498 volume 0.52324088520608635910491557297064
  1 settings made for volume
set atom 1498 mass 470.91679668547772052988875657320023
  1 settings made for mass
set atom 1499 volume 0.52794289504425917503027676502825
  1 settings made for volume
set atom 1499 mass 475.14860553983328372851246967911720
  1 settings made for mass
set atom 1500 volume 0.52563047569960719140880200939137
  1 settings made for volume
set atom 1500 mass 473.06742812964648692286573350429535
  1 settings made for mass
set atom 1501 volume 0.51950814921195753726124166860245
  1 settings made for volume
set atom 1501 mass 467.55733429076178708783118054270744
  1 settings made for mass
set atom 1502 volume 0.52132906649977905910731124095037
  1 settings made for volume
set atom 1502 mass 469.19615984980117673330823890864849
  1 settings made for mass
set atom 1503 volume 0.52227682868579516917151295274380
  1 settings made for volume
set atom 1503 mass 470.04914581721567401473294012248516
  1 settings made for mass
set atom 1504 volume 0.52243212996633603406593238105415
  1 settings made for volume
set atom 1504 mass 470.18891696970240445807576179504395
  1 settings made for mass
set atom 1505 volume 0.52259872416892172442004493859713
  1 settings made for volume
set atom 1505 mass 470.33885175202954087581019848585129
  1 settings made for mass
set atom 1506 volume 0.52500792806941776191820281383116
  1 settings made for volume
set atom 1506 mass 472.50713526247596973917097784578800
  1 settings made for mass
set atom 1507 volume 0.52360653288311020947531915226136
  1 settings made for volume
set atom 1507 mass 471.24587959479919163641170598566532
  1 settings made for mass
set atom 1508 volume 0.53029253587612623643821052610292
  1 settings made for volume
set atom 1508 mass 477.26328228851360790940816514194012
  1 settings made for mass
set atom 1509 volume 0.52640036147655488996122130629374
  1 settings made for volume
set atom 1509 mass 473.76032532889939830056391656398773
  1 settings made for mass
set atom 1510 volume 0.51482015383233770133841744609526
  1 settings made for volume
set atom 1510 mass 463.33813844910395118859014473855495
  1 settings made for mass
set atom 1511 volume 0.52175104218249390708450619058567
  1 settings made for volume
set atom 1511 mass 469.57593796424453103099949657917023
  1 settings made for mass
set atom 1512 volume 0.52716195823314337953746644416242
  1 settings made for volume
set atom 1512 mass 474.44576240982905801502056419849396
  1 settings made for mass
set atom 1513 volume 0.52512828000487854485101024692995
  1 settings made for volume
set atom 1513 mass 472.61545200439070413267472758889198
  1 settings made for mass
set atom 1514 volume 0.51894550510532044818035046773730
  1 settings made for volume
set atom 1514 mass 467.05095459478837938149808906018734
  1 settings made for mass
set atom 1515 volume 0.52523202863250972871611566006322
  1 settings made for volume
set atom 1515 mass 472.70882576925873763684649020433426
  1 settings made for mass
set atom 1516 volume 0.52096445385104306335932733418304
  1 settings made for volume
set atom 1516 mass 468.86800846593877167833852581679821
  1 settings made for mass
set atom 1517 volume 0.52547172269865627391993712080875
  1 settings made for volume
set atom 1517 mass 472.92455042879066695604706183075905
  1 settings made for mass
set atom 1518 volume 0.52276567549531949286034659962752
  1 settings made for volume
set atom 1518 mass 470.48910794578756622286164201796055
  1 settings made for mass
set atom 1519 volume 0.52581386015372566511416607681895
  1 settings made for volume
set atom 1519 mass 473.23247413835309771457104943692684
  1 settings made for mass
set atom 1520 volume 0.52791686366659318352390073414426
  1 settings made for volume
set atom 1520 mass 475.12517729993385273701278492808342
  1 settings made for mass
set atom 1521 volume 0.52358849245655891824213767904439
  1 settings made for volume
set atom 1521 mass 471.22964321090302064476418308913708
  1 settings made for mass
set atom 1522 volume 0.52258157448896824792683446503361
  1 settings made for volume
set atom 1522 mass 470.32341704007143334820284508168697
  1 settings made for mass
set atom 1523 volume 0.52935310028637860835232231693226
  1 settings made for volume
set atom 1523 mass 476.41779025774076217203401029109955
  1 settings made for mass
set atom 1524 volume 0.52420484825257540606457951071206
  1 settings made for volume
set atom 1524 mass 471.78436342731788499804679304361343
  1 settings made for mass
set atom 1525 volume 0.52788255542152795474208915038616
  1 settings made for volume
set atom 1525 mass 475.09429987937517125828890129923820
  1 settings made for mass
set atom 1526 volume 0.52323868157143749169080138017307
  1 settings made for volume
set atom 1526 mass 470.91481341429374651852413080632687
  1 settings made for mass
set atom 1527 volume 0.52069177307705027946127529503428
  1 settings made for volume
set atom 1527 mass 468.62259576934525284741539508104324
  1 settings made for mass
set atom 1528 volume 0.51900188899599108971472105622524
  1 settings made for volume
set atom 1528 mass 467.10170009639199406592524610459805
  1 settings made for mass
set atom 1529 volume 0.52855425696512026156881347560557
  1 settings made for volume
set atom 1529 mass 475.69883126860821676018531434237957
  1 settings made for mass
set atom 1530 volume 0.52196705330493053942575443215901
  1 settings made for volume
set atom 1530 mass 469.77034797443747038414585404098034
  1 settings made for mass
set atom 1531 volume 0.52655866311288568315518432427780
  1 settings made for volume
set atom 1531 mass 473.90279680159710551379248499870300
  1 settings made for mass
set atom 1532 volume 0.52033172025186824605214042094303
  1 settings made for volume
set atom 1532 mass 468.29854822668141878239111974835396
  1 settings made for mass
set atom 1533 volume 0.52761605885222262468658982470515
  1 settings made for volume
set atom 1533 mass 474.85445296700038397830212488770485
  1 settings made for mass
set atom 1534 volume 0.52016932201953680614536779103219
  1 settings made for volume
set atom 1534 mass 468.15238981758312775127706117928028
  1 settings made for mass
set atom 1535 volume 0.52122515932469026811446610736311
  1 settings made for volume
set atom 1535 mass 469.10264339222123908257344737648964
  1 settings made for mass
set atom 1536 volume 0.52323885152234850259844733955106
  1 settings made for volume
set atom 1536 mass 470.91496637011363191049895249307156
  1 settings made for mass
set atom 1537 volume 0.51861508942243650377434960319079
  1 settings made for volume
set atom 1537 mass 466.75358048019285206464701332151890
  1 settings made for mass
set atom 1538 volume 0.52147260441748510828574580955319
  1 settings made for volume
set atom 1538 mass 469.32534397573658679903019219636917
  1 settings made for mass
set atom 1539 volume 0.52356083648472884206626076775137
  1 settings made for volume
set atom 1539 mass 471.20475283625597739955992437899113
  1 settings made for mass
set atom 1540 volume 0.52510731471762461808339139679447
  1 settings made for volume
set atom 1540 mass 472.59658324586217759133432991802692
  1 settings made for mass
set atom 1541 volume 0.52904167075875463410739030223340
  1 settings made for volume
set atom 1541 mass 476.13750368287918490750598721206188
  1 settings made for mass
set atom 1542 volume 0.52903128162088952635144778469112
  1 settings made for volume
set atom 1542 mass 476.12815345880056838723248802125454
  1 settings made for mass
set atom 1543 volume 0.52616327917968874761101005788078
  1 settings made for volume
set atom 1543 mass 473.54695126171986885310616344213486
  1 settings made for mass
set atom 1544 volume 0.52792424609481192199211818660842
  1 settings made for volume
set atom 1544 mass 475.13182148533070403573219664394855
  1 settings made for mass
set atom 1545 volume 0.52319553375093774683080027898541
  1 settings made for volume
set atom 1545 mass 470.87598037584399435218074358999729
  1 settings made for mass
set atom 1546 volume 0.52616303842809841739835974294692
  1 settings made for volume
set atom 1546 mass 473.54673458528856144766905345022678
  1 settings made for mass
set atom 1547 volume 0.52492440836291598404983460568474
  1 settings made for volume
set atom 1547 mass 472.43196752662436210812302306294441
  1 settings made for mass
set atom 1548 volume 0.52718968049254533170255854201969
  1 settings made for volume
set atom 1548 mass 474.47071244329077899237745441496372
  1 settings made for mass
set atom 1549 volume 0.51872320668050619918432175836642
  1 settings made for volume
set atom 1549 mass 466.85088601245558947994140908122063
  1 settings made for mass
set atom 1550 volume 0.51946294920994540156300445232773
  1 settings made for volume
set atom 1550 mass 467.51665428895086051852558739483356
  1 settings made for mass
set atom 1551 volume 0.52276689008162224858722311182646
  1 settings made for volume
set atom 1551 mass 470.49020107346001395853818394243717
  1 settings made for mass
set atom 1552 volume 0.52506364640906066920678085807594
  1 settings made for volume
set atom 1552 mass 472.55728176815460983561933971941471
  1 settings made for mass
set atom 1553 volume 0.52247464189192638350789366086246
  1 settings made for volume
set atom 1553 mass 470.22717770273374071621219627559185
  1 settings made for mass
set atom 1554 volume 0.52880614581984741739972832874628
  1 settings made for volume
set atom 1554 mass 475.92553123786268542971811257302761
  1 settings made for mass
set atom 1555 volume 0.52701957369945351405959854673711
  1 settings made for volume
set atom 1555 mass 474.31761632950815510412212461233139
  1 settings made for mass
set atom 1556 volume 0.51919068999451989387949879528605
  1 settings made for volume
set atom 1556 mass 467.27162099506790582381654530763626
  1 settings made for mass
set atom 1557 volume 0.52520100936130709179394671082264
  1 settings made for volume
set atom 1557 mass 472.68090842517636929187574423849583
  1 settings made for mass
set atom 1558 volume 0.51977917965887754370157836092403
  1 settings made for volume
set atom 1558 mass 467.80126169298978311417158693075180
  1 settings made for mass
set atom 1559 volume 0.51999393378677560839662419311935
  1 settings made for volume
set atom 1559 mass 467.99454040809803245792863890528679
  1 settings made for mass
set atom 1560 volume 0.51975562142133002740962410825887
  1 settings made for volume
set atom 1560 mass 467.78005927919701889550196938216686
  1 settings made for mass
set atom 1561 volume 0.52537763434294737496799143627868
  1 settings made for volume
set atom 1561 mass 472.83987090865264235617360100150108
  1 settings made for mass
set atom 1562 volume 0.52657703366145780510265694829286
  1 settings made for volume
set atom 1562 mass 473.91933029531202237194520421326160
  1 settings made for mass
set atom 1563 volume 0.52150117635521942016652019447065
  1 settings made for volume
set atom 1563 mass 469.35105871969750523930997587740421
  1 settings made for mass
set atom 1564 volume 0.51807834058581814229427209284040
  1 settings made for volume
set atom 1564 mass 466.27050652723630719265202060341835
  1 settings made for mass
set atom 1565 volume 0.52308568466068572355709420662606
  1 settings made for volume
set atom 1565 mass 470.77711619461717873491579666733742
  1 settings made for mass
set atom 1566 volume 0.52159464339214700601132790325209
  1 settings made for volume
set atom 1566 mass 469.43517905293231251562247052788734
  1 settings made for mass
set atom 1567 volume 0.52133296491587133303369228087831
  1 settings made for volume
set atom 1567 mass 469.19966842428419795396621339023113
  1 settings made for mass
set atom 1568 volume 0.52140154360037105352176922679064
  1 settings made for volume
set atom 1568 mass 469.26138924033392640922102145850658
  1 settings made for mass
set atom 1569 volume 0.52611588866804015474087918846635
  1 settings made for volume
set atom 1569 mass 473.50429980123612949682865291833878
  1 settings made for mass
set atom 1570 volume 0.52637281507451827433641255993280
  1 settings made for volume
set atom 1570 mass 473.73553356706645445228787139058113
  1 settings made for mass
set atom 1571 volume 0.52408890953665654421911312965676
  1 settings made for volume
set atom 1571 mass 471.68001858299089690262917429208755
  1 settings made for mass
set atom 1572 volume 0.52499989255516665842549173248699
  1 settings made for volume
set atom 1572 mass 472.49990329964998636569362133741379
  1 settings made for mass
set atom 1573 volume 0.52251544989125053852774271945236
  1 settings made for volume
set atom 1573 mass 470.26390490212548911586054600775242
  1 settings made for mass
set atom 1574 volume 0.52216112063498942852390882762847
  1 settings made for volume
set atom 1574 mass 469.94500857149046169070061296224594
  1 settings made for mass
set atom 1575 volume 0.52868586133736250598502692810143
  1 settings made for volume
set atom 1575 mass 475.81727520362625227789976634085178
  1 settings made for mass
set atom 1576 volume 0.52157420531597498136733292994904
  1 settings made for volume
set atom 1576 mass 469.41678478437745525297941640019417
  1 settings made for mass
set atom 1577 volume 0.51896266345036123901479641062906
  1 settings made for volume
set atom 1577 mass 467.06639710532510889606783166527748
  1 settings made for mass
set atom 1578 volume 0.52369267908228644969881315773819
  1 settings made for volume
set atom 1578 mass 471.32341117405781005800236016511917
  1 settings made for mass
set atom 1579 volume 0.52146992012382054060282143836957
  1 settings made for volume
set atom 1579 mass 469.32292811143850030930479988455772
  1 settings made for mass
set atom 1580 volume 0.52486920859520291848809847579105
  1 settings made for volume
set atom 1580 mass 472.38228773568260976389865390956402
  1 settings made for mass
set atom 1581 volume 0.52030919624702676173910731449723
  1 settings made for volume
set atom 1581 mass 468.27827662232408556519658304750919
  1 settings made for mass
set atom 1582 volume 0.52285972418611892376105743096559
  1 settings made for volume
set atom 1582 mass 470.57375176750701939454302191734314
  1 settings made for mass
set atom 1583 volume 0.52406554029782892456523768487386
  1 settings made for volume
set atom 1583 mass 471.65898626804602145057287998497486
  1 settings made for mass
set atom 1584 volume 0.51727240206700753066826337089879
  1 settings made for volume
set atom 1584 mass 465.54516186030679136820253916084766
  1 settings made for mass
set atom 1585 volume 0.52711449679864663675488145599957
  1 settings made for volume
set atom 1585 mass 474.40304711878195575991412624716759
  1 settings made for mass
set atom 1586 volume 0.52154055004327226630067571022664
  1 settings made for volume
set atom 1586 mass 469.38649503894504277923260815441608
  1 settings made for mass
set atom 1587 volume 0.52062494724674279744647265033564
  1 settings made for volume
set atom 1587 mass 468.56245252206849727372173219919205
  1 settings made for mass
set atom 1588 volume 0.52284786092464785589584153058240
  1 settings made for volume
set atom 1588 mass 470.56307483218307652350631542503834
  1 settings made for mass
set atom 1589 volume 0.52570682961541725930487700679805
  1 settings made for volume
set atom 1589 mass 473.13614665387552804531878791749477
  1 settings made for mass
set atom 1590 volume 0.52608676697564626945080590303405
  1 settings made for volume
set atom 1590 mass 473.47809027808165183159871958196163
  1 settings made for mass
set atom 1591 volume 0.51752115687749400407824396097567
  1 settings made for volume
set atom 1591 mass 465.76904118974459834134904667735100
  1 settings made for mass
set atom 1592 volume 0.52206997548391820274105157295708
  1 settings made for volume
set atom 1592 mass 469.86297793552637358516221866011620
  1 settings made for mass
set atom 1593 volume 0.52241318939197634030335848365212
  1 settings made for volume
set atom 1593 mass 470.17187045277870538484421558678150
  1 settings made for mass
set atom 1594 volume 0.52842520117084790243211500637699
  1 settings made for volume
set atom 1594 mass 475.58268105376311041254666633903980
  1 settings made for mass
set atom 1595 volume 0.52426167014637892194173218740616
  1 settings made for volume
set atom 1595 mass 471.83550313174100665492005646228790
  1 settings made for mass
set atom 1596 volume 0.52292789395423167064791414304636
  1 settings made for volume
set atom 1596 mass 470.63510455880850713583640754222870
  1 settings made for mass
set atom 1597 volume 0.52439992385747247194416331694811
  1 settings made for volume
set atom 1597 mass 471.95993147172521275933831930160522
  1 settings made for mass
set atom 1598 volume 0.52346435073161623474646830800339
  1 settings made for volume
set atom 1598 mass 471.11791565845459217598545365035534
  1 settings made for mass
set atom 1599 volume 0.52666252627707144107205294858431
  1 settings made for volume
set atom 1599 mass 473.99627364936429785302607342600822
  1 settings made for mass
set atom 1600 volume 0.52443472684514336190630956480163
  1 settings made for volume
set atom 1600 mass 471.99125416062901194891310296952724
  1 settings made for mass
set atom 1601 volume 0.52640476164156668748006495661684
  1 settings made for volume
set atom 1601 mass 473.76428547740999874804401770234108
  1 settings made for mass
set atom 1602 volume 0.52326839895015819781320942638558
  1 settings made for volume
set atom 1602 mass 470.94155905514236337694455869495869
  1 settings made for mass
set atom 1603 volume 0.52133002461370125946160669627716
  1 settings made for volume
set atom 1603 mass 469.19702215233115794035256840288639
  1 settings made for mass
set atom 1604 volume 0.52607739811885434466631750183296
  1 settings made for volume
set atom 1604 mass 473.46965830696893817730597220361233
  1 settings made for mass
set atom 1605 volume 0.51928181439295195698235829695477
  1 settings made for volume
set atom 1605 mass 467.35363295365675639914115890860558
  1 settings made for mass
set atom 1606 volume 0.52513672662389754286493825929938
  1 settings made for volume
set atom 1606 mass 472.62305396150776459762710146605968
  1 settings made for mass
set atom 1607 volume 0.52518419197572629997239346266724
  1 settings made for volume
set atom 1607 mass 472.66577277815366642244043760001659
  1 settings made for mass
set atom 1608 volume 0.52298372530615455655578216465074
  1 settings made for volume
set atom 1608 mass 470.68535277553911555514787323772907
  1 settings made for mass
set atom 1609 volume 0.52166140397460258881778827344533
  1 settings made for volume
set atom 1609 mass 469.49526357714233881779364310204983
  1 settings made for mass
set atom 1610 volume 0.52769856767663081420494108897401
  1 settings made for volume
set atom 1610 mass 474.92871090896773011991172097623348
  1 settings made for mass
set atom 1611 volume 0.52602246701554233876407806747011
  1 settings made for volume
set atom 1611 mass 473.42022031398812487168470397591591
  1 settings made for mass
set atom 1612 volume 0.52438092111482625945484414842213
  1 settings made for volume
set atom 1612 mass 471.94282900334366104289074428379536
  1 settings made for mass
set atom 1613 volume 0.52519234431296712983794350293465
  1 settings made for volume
set atom 1613 mass 472.67310988167042751229018904268742
  1 settings made for mass
set atom 1614 volume 0.52027914800794272665029893687461
  1 settings made for volume
set atom 1614 mass 468.25123320714845931433956138789654
  1 settings made for mass
set atom 1615 volume 0.51648517704687446627787039687973
  1 settings made for volume
set atom 1615 mass 464.83665934218703341684886254370213
  1 settings made for mass
set atom 1616 volume 0.52481043088170975519091143723927
  1 settings made for volume
set atom 1616 mass 472.32938779353878544498002156615257
  1 settings made for mass
set atom 1617 volume 0.52503379788857618137853933149017
  1 settings made for volume
set atom 1617 mass 472.53041809971858810968114994466305
  1 settings made for mass
set atom 1618 volume 0.52722174253955056411058421872440
  1 settings made for volume
set atom 1618 mass 474.49956828559550103818764910101891
  1 settings made for mass
set atom 1619 volume 0.52480247401004287421955041281763
  1 settings made for volume
set atom 1619 mass 472.32222660903858013625722378492355
  1 settings made for mass
set atom 1620 volume 0.53097051136619732858434872468933
  1 settings made for volume
set atom 1620 mass 477.87346022957757440963177941739559
  1 settings made for mass
set atom 1621 volume 0.52575044521504821215529545952450
  1 settings made for volume
set atom 1621 mass 473.17540069354339493656880222260952
  1 settings made for mass
set atom 1622 volume 0.52393960534882366708586687309435
  1 settings made for volume
set atom 1622 mass 471.54564481394129416003124788403511
  1 settings made for mass
set atom 1623 volume 0.51932535350944797336580904811854
  1 settings made for volume
set atom 1623 mass 467.39281815850318935190443880856037
  1 settings made for mass
set atom 1624 volume 0.52523491411810641071866712081828
  1 settings made for volume
set atom 1624 mass 472.71142270629576387364068068563938
  1 settings made for mass
set atom 1625 volume 0.52629166911650360205499055155087
  1 settings made for volume
set atom 1625 mass 473.66250220485324007313465699553490
  1 settings made for mass
set atom 1626 volume 0.52402467669548469242357668917975
  1 settings made for volume
set atom 1626 mass 471.62220902593622895437874831259251
  1 settings made for mass
set atom 1627 volume 0.52363295520634545177074414823437
  1 settings made for volume
set atom 1627 mass 471.26965968571090570549131371080875
  1 settings made for mass
set atom 1628 volume 0.52483744517056263312326791492524
  1 settings made for volume
set atom 1628 mass 472.35370065350639379175845533609390
  1 settings made for mass
set atom 1629 volume 0.52695481974499114308230218739482
  1 settings made for volume
set atom 1629 mass 474.25933777049203854403458535671234
  1 settings made for mass
set atom 1630 volume 0.52482663109165694770297250215663
  1 settings made for volume
set atom 1630 mass 472.34396798249127868984942324459553
  1 settings made for mass
set atom 1631 volume 0.52668502835441510789848962303950
  1 settings made for volume
set atom 1631 mass 474.01652551897359444410540163516998
  1 settings made for mass
set atom 1632 volume 0.52034144649981339814104330798727
  1 settings made for volume
set atom 1632 mass 468.30730184983207209370448254048824
  1 settings made for mass
set atom 1633 volume 0.52070953942900011224281797694857
  1 settings made for volume
set atom 1633 mass 468.63858548610011212076642550528049
  1 settings made for mass
set atom 1634 volume 0.51864443521103964496177241016994
  1 settings made for volume
set atom 1634 mass 466.77999168993568446239805780351162
  1 settings made for mass
set atom 1635 volume 0.52260609703337879139439792197663
  1 settings made for volume
set atom 1635 mass 470.34548733004089626774657517671585
  1 settings made for mass
set atom 1636 volume 0.52434760117433498738392927407403
  1 settings made for volume
set atom 1636 mass 471.91284105690147043787874281406403
  1 settings made for mass
set atom 1637 volume 0.51993413938312871280800209206063
  1 settings made for volume
set atom 1637 mass 467.94072544481582553999032825231552
  1 settings made for mass
set atom 1638 volume 0.52363567186866910585507639552816
  1 settings made for volume
set atom 1638 mass 471.27210468180220459544216282665730
  1 settings made for mass
set atom 1639 volume 0.52581527190352927991767728599370
  1 settings made for volume
set atom 1639 mass 473.23374471317634970546350814402103
  1 settings made for mass
set atom 1640 volume 0.52330967610889567165344260502025
  1 settings made for volume
set atom 1640 mass 470.97870849800608539226232096552849
  1 settings made for mass
set atom 1641 volume 0.52601952726239742386127318241051
  1 settings made for volume
set atom 1641 mass 473.41757453615770145916030742228031
  1 settings made for mass
set atom 1642 volume 0.52568411901215938986098308305372
  1 settings made for volume
set atom 1642 mass 473.11570711094344687808188609778881
  1 settings made for mass
set atom 1643 volume 0.52705902290640616048023048278992
  1 settings made for volume
set atom 1643 mass 474.35312061576553332997718825936317
  1 settings made for mass
set atom 1644 volume 0.52530408122375704671469520690152
  1 settings made for volume
set atom 1644 mass 472.77367310138134826047462411224842
  1 settings made for mass
set atom 1645 volume 0.52788643641339805245848992854008
  1 settings made for volume
set atom 1645 mass 475.09779277205825565033592283725739
  1 settings made for mass
set atom 1646 volume 0.52488620385316497873873231583275
  1 settings made for volume
set atom 1646 mass 472.39758346784850573385483585298061
  1 settings made for mass
set atom 1647 volume 0.52480721521905682180886287824251
  1 settings made for volume
set atom 1647 mass 472.32649369715113607526291161775589
  1 settings made for mass
set atom 1648 volume 0.52190855280183734432597475461080
  1 settings made for volume
set atom 1648 mass 469.71769752165363343010540120303631
  1 settings made for mass
set atom 1649 volume 0.51859067033487893372267762970296
  1 settings made for volume
set atom 1649 mass 466.73160330139103280089329928159714
  1 settings made for mass
set atom 1650 volume 0.52496027960492941399905930666137
  1 settings made for volume
set atom 1650 mass 472.46425164443644462153315544128418
  1 settings made for mass
set atom 1651 volume 0.52786068865830759744284250700730
  1 settings made for volume
set atom 1651 mass 475.07461979247682393179275095462799
  1 settings made for mass
set atom 1652 volume 0.52495043543646358052967570984038
  1 settings made for volume
set atom 1652 mass 472.45539189281720382496132515370846
  1 settings made for mass
set atom 1653 volume 0.52656810391609565336068499163957
  1 settings made for volume
set atom 1653 mass 473.91129352448609779457910917699337
  1 settings made for mass
set atom 1654 volume 0.52048506792067150694691690659965
  1 settings made for volume
set atom 1654 mass 468.43656112860435314360074698925018
  1 settings made for mass
set atom 1655 volume 0.52401144066305960222962312400341
  1 settings made for volume
set atom 1655 mass 471.61029659675364200666081160306931
  1 settings made for mass
set atom 1656 volume 0.52808088376553496967602541189990
  1 settings made for volume
set atom 1656 mass 475.27279538898147848158259876072407
  1 settings made for mass
set atom 1657 volume 0.52742382422274902697978404830792
  1 settings made for volume
set atom 1657 mass 474.68144180047414693035534583032131
  1 settings made for mass
set atom 1658 volume 0.52101404689505337319843647492235
  1 settings made for volume
set atom 1658 mass 468.91264220554802477636258117854595
  1 settings made for mass
set atom 1659 volume 0.52380291514722754353527989223949
  1 settings made for volume
set atom 1659 mass 471.42262363250478074405691586434841
  1 settings made for mass
set atom 1660 volume 0.52458196640599197291265909370850
  1 settings made for volume
set atom 1660 mass 472.12376976539275119648664258420467
  1 settings made for mass
set atom 1661 volume 0.52796364138985751868204943093588
  1 settings made for volume
set atom 1661 mass 475.16727725087179123875102959573269
  1 settings made for mass
set atom 1662 volume 0.52053802613393518328166464925744
  1 settings made for volume
set atom 1662 mass 468.48422352054166140078450553119183
  1 settings made for mass
set atom 1663 volume 0.52261155437970707726691443895106
  1 settings made for volume
set atom 1663 mass 470.35039894173638685970217920839787
  1 settings made for mass
set atom 1664 volume 0.52398561506791185848896930110641
  1 settings made for volume
set atom 1664 mass 471.58705356112068329821340739727020
  1 settings made for mass
set atom 1665 volume 0.52228529842214155287649646197679
  1 settings made for volume
set atom 1665 mass 470.05676857992739314795471727848053
  1 settings made for mass
set atom 1666 volume 0.51669175724486104961385990463896
  1 settings made for volume
set atom 1666 mass 465.02258152037495619879337027668953
  1 settings made for mass
set atom 1667 volume 0.52178339358124536939698145943112
  1 settings made for volume
set atom 1667 mass 469.60505422312081691416096873581409
  1 settings made for mass
set atom 1668 volume 0.52299484302637921917522589865257
  1 settings made for volume
set atom 1668 mass 470.69535872374132168260985054075718
  1 settings made for mass
set atom 1669 volume 0.52434445560873599312401438510278
  1 settings made for volume
set atom 1669 mass 471.91001004786238581800716929137707
  1 settings made for mass
set atom 1670 volume 0.52185063599166914283244977923459
  1 settings made for volume
set atom 1670 mass 469.66557239250221300608245655894279
  1 settings made for mass
set atom 1671 volume 0.52246789381368796689741884620162
  1 settings made for volume
set atom 1671 mass 470.22110443231917997763957828283310
  1 settings made for mass
set atom 1672 volume 0.51787711152202253739318393854774
  1 settings made for volume
set atom 1672 mass 466.08940036982028232159791514277458
  1 settings made for mass
set atom 1673 volume 0.52720308621682554495180283993250
  1 settings made for volume
set atom 1673 mass 474.48277759514297713394626043736935
  1 settings made for mass
set atom 1674 volume 0.52246790618649252557759155024542
  1 settings made for volume
set atom 1674 mass 470.22111556784329877700656652450562
  1 settings made for mass
set atom 1675 volume 0.52503491263474932893018376489636
  1 settings made for volume
set atom 1675 mass 472.53142137127440491894958540797234
  1 settings made for mass
set atom 1676 volume 0.52440715554692929334379414285650
  1 settings made for volume
set atom 1676 mass 471.96643999223636001261183992028236
  1 settings made for mass
set atom 1677 volume 0.51843174796727975461863024975173
  1 settings made for volume
set atom 1677 mass 466.58857317055179692033561877906322
  1 settings made for mass
set atom 1678 volume 0.52809370755521167772883472935064
  1 settings made for volume
set atom 1678 mass 475.28433679969049308056128211319447
  1 settings made for mass
set atom 1679 volume 0.51923249119339209833867698762333
  1 settings made for volume
set atom 1679 mass 467.30924207405286097127827815711498
  1 settings made for mass
set atom 1680 volume 0.53071645926421606720424506420386
  1 settings made for volume
set atom 1680 mass 477.64481333779446003973134793341160
  1 settings made for mass
set atom 1681 volume 0.51844881258507724552941908768844
  1 settings made for volume
set atom 1681 mass 466.60393132656952275283401831984520
  1 settings made for mass
set atom 1682 volume 0.52195559437321048523727995416266
  1 settings made for volume
set atom 1682 mass 469.76003493588945048031746409833431
  1 settings made for mass
set atom 1683 volume 0.52419628768151471653879980294732
  1 settings made for volume
set atom 1683 mass 471.77665891336323511495720595121384
  1 settings made for mass
set atom 1684 volume 0.53031433796290694537844956357731
  1 settings made for volume
set atom 1684 mass 477.28290416661627659777877852320671
  1 settings made for mass
set atom 1685 volume 0.51851365167059315641751027214923
  1 settings made for volume
set atom 1685 mass 466.66228650353383500259951688349247
  1 settings made for mass
set atom 1686 volume 0.51974378201795623510861332761124
  1 settings made for volume
set atom 1686 mass 467.76940381616060449232463724911213
  1 settings made for mass
set atom 1687 volume 0.52884349313434553252477599016856
  1 settings made for volume
set atom 1687 mass 475.95914382091098104865523055195808
  1 settings made for mass
set atom 1688 volume 0.52092240482080709451651046038023
  1 settings made for volume
set atom 1688 mass 468.83016433872637662716442719101906
  1 settings made for mass
set atom 1689 volume 0.52278555514679914129061444327817
  1 settings made for volume
set atom 1689 mass 470.50699963211923204653430730104446
  1 settings made for mass
set atom 1690 volume 0.52553838568798627584044425020693
  1 settings made for volume
set atom 1690 mass 472.98454711918765269729192368686199
  1 settings made for mass
set atom 1691 volume 0.52355465579518545293780107385828
  1 settings made for volume
set atom 1691 mass 471.19919021566693118074908852577209
  1 settings made for mass
set atom 1692 volume 0.52107099697834158291698258835822
  1 settings made for volume
set atom 1692 mass 468.96389728050741041442961432039738
  1 settings made for mass
set atom 1693 volume 0.52177711664557713255874205060536
  1 settings made for volume
set atom 1693 mass 469.59940498101940420383471064269543
  1 settings made for mass
set atom 1694 volume 0.52456764129403110619165317984880
  1 settings made for volume
set atom 1694 mass 472.11087716462799335204181261360645
  1 settings made for mass
set atom 1695 volume 0.52442363980367889819689253272372
  1 settings made for volume
set atom 1695 mass 471.98127582331102303214720450341702
  1 settings made for mass
set atom 1696 volume 0.52498527795480065538669123270665
  1 settings made for volume
set atom 1696 mass 472.48675015932059295664657838642597
  1 settings made for mass
set atom 1697 volume 0.52052489201492613268840159435058
  1 settings made for volume
set atom 1697 mass 468.47240281343351853138301521539688
  1 settings made for mass
set atom 1698 volume 0.51514145302993452624207293411018
  1 settings made for volume
set atom 1698 mass 463.62730772694106917697354219853878
  1 settings made for mass
set atom 1699 volume 0.52484233324700979572696724062553
  1 settings made for volume
set atom 1699 mass 472.35809992230883835873100906610489
  1 settings made for mass
set atom 1700 volume 0.52641391885700861141827999745146
  1 settings made for volume
set atom 1700 mass 473.77252697130774095057859085500240
  1 settings made for mass
set atom 1701 volume 0.52386242199620691728512156259967
  1 settings made for volume
set atom 1701 mass 471.47617979658622289207414723932743
  1 settings made for mass
set atom 1702 volume 0.52225430246462678507413102124701
  1 settings made for volume
set atom 1702 mass 470.02887221816411056352080777287483
  1 settings made for mass
set atom 1703 volume 0.52862558261898007216927908302750
  1 settings made for volume
set atom 1703 mass 475.76302435708208804499008692800999
  1 settings made for mass
set atom 1704 volume 0.52816772604556294634647883867729
  1 settings made for volume
set atom 1704 mass 475.35095344100665215592016465961933
  1 settings made for mass
set atom 1705 volume 0.52066702343671789066092969733290
  1 settings made for volume
set atom 1705 mass 468.60032109304609093669569119811058
  1 settings made for mass
set atom 1706 volume 0.52571091834033845113793859127327
  1 settings made for volume
set atom 1706 mass 473.13982650630458692830870859324932
  1 settings made for mass
set atom 1707 volume 0.52199104166696885798160110425670
  1 settings made for volume
set atom 1707 mass 469.79193750027195619622943922877312
  1 settings made for mass
set atom 1708 volume 0.52589134431222028798202927646344
  1 settings made for volume
set atom 1708 mass 473.30220988099824808159610256552696
  1 settings made for mass
set atom 1709 volume 0.52328551981690507588496075186413
  1 settings made for volume
set atom 1709 mass 470.95696783521458428367623127996922
  1 settings made for mass
set atom 1710 volume 0.52785210939731441737166051098029
  1 settings made for volume
set atom 1710 mass 475.06689845758296542044263333082199
  1 settings made for mass
set atom 1711 volume 0.52654276055812576640136057903874
  1 settings made for volume
set atom 1711 mass 473.88848450231319020531373098492622
  1 settings made for mass
set atom 1712 volume 0.52554372486413902798574326880043
  1 settings made for volume
set atom 1712 mass 472.98935237772514028620207682251930
  1 settings made for mass
set atom 1713 volume 0.52400597411972682504455178786884
  1 settings made for volume
set atom 1713 mass 471.60537670775414653689949773252010
  1 settings made for mass
set atom 1714 volume 0.52520195025716343018018505972577
  1 settings made for volume
set atom 1714 mass 472.68175523144708449763129465281963
  1 settings made for mass
set atom 1715 volume 0.52672180231580600917595802457072
  1 settings made for volume
set atom 1715 mass 474.04962208422540470564854331314564
  1 settings made for mass
set atom 1716 volume 0.52440832185689001398998243530514
  1 settings made for volume
set atom 1716 mass 471.96748967120100815009209327399731
  1 settings made for mass
set atom 1717 volume 0.52480962910463768711366583374911
  1 settings made for volume
set atom 1717 mass 472.32866619417393394542159512639046
  1 settings made for mass
set atom 1718 volume 0.52187641128209305563245834491681
  1 settings made for volume
set atom 1718 mass 469.68877015388375184556934982538223
  1 settings made for mass
set atom 1719 volume 0.52367378642578543690433434676379
  1 settings made for volume
set atom 1719 mass 471.30640778320690742475562728941441
  1 settings made for mass
set atom 1720 volume 0.52017334866450437580454035924049
  1 settings made for volume
set atom 1720 mass 468.15601379805394799404894001781940
  1 settings made for mass
set atom 1721 volume 0.52526128103388314283250792868785
  1 settings made for volume
set atom 1721 mass 472.73515293049484853327157907187939
  1 settings made for mass
set atom 1722 volume 0.52149217086876431537234566349071
  1 settings made for volume
set atom 1722 mass 469.34295378188789982232265174388885
  1 settings made for mass
set atom 1723 volume 0.52619947587988535886438512534369
  1 settings made for volume
set atom 1723 mass 473.57952829189684962329920381307602
  1 settings made for mass
set atom 1724 volume 0.52069833365554973880762190674432
  1 settings made for volume
set atom 1724 mass 468.62850028999474716329132206737995
  1 settings made for mass
set atom 1725 volume 0.52745041026607375478363337606424
  1 settings made for volume
set atom 1725 mass 474.70536923946639262794633395969868
  1 settings made for mass
set atom 1726 volume 0.52781082924258126976013727471582
  1 settings made for volume
set atom 1726 mass 475.02974631832313434642856009304523
  1 settings made for mass
set atom 1727 volume 0.51892847899608862682896415208234
  1 settings made for volume
set atom 1727 mass 467.03563109647978990324190817773342
  1 settings made for mass
set atom 1728 volume 0.52452245178118128698940836329712
  1 settings made for volume
set atom 1728 mass 472.07020660306318404764169827103615
  1 settings made for mass
set atom 1729 volume 0.52288875464016337790695843068534
  1 settings made for volume
set atom 1729 mass 470.59987917614705565938493236899376
  1 settings made for mass
set atom 1730 volume 0.52654770643887982561892613375676
  1 settings made for volume
set atom 1730 mass 473.89293579499184261294431053102016
  1 settings made for mass
set atom 1731 volume 0.52267512053392384263617032047478
  1 settings made for volume
set atom 1731 mass 470.40760848053145082303672097623348
  1 settings made for mass
set atom 1732 volume 0.52176048452575229941174939085613
  1 settings made for volume
set atom 1732 mass 469.58443607317707346737734042108059
  1 settings made for mass
set atom 1733 volume 0.52673257773057746700118286753423
  1 settings made for volume
set atom 1733 mass 474.05931995751973317965166643261909
  1 settings made for mass
set atom 1734 volume 0.52390593535527796298367775307270
  1 settings made for volume
set atom 1734 mass 471.51534181975017645527259446680546
  1 settings made for mass
set atom 1735 volume 0.51887907871525607017559877931490
  1 settings made for volume
set atom 1735 mass 466.99117084373045827305759303271770
  1 settings made for mass
set atom 1736 volume 0.52360247748152155544687502697343
  1 settings made for volume
set atom 1736 mass 471.24222973336941322486381977796555
  1 settings made for mass
set atom 1737 volume 0.52476082632587406351376557722688
  1 settings made for volume
set atom 1737 mass 472.28474369328665716238901950418949
  1 settings made for mass
set atom 1738 volume 0.52419421300812052422202214074787
  1 settings made for volume
set atom 1738 mass 471.77479170730845225989469327032566
  1 settings made for mass
set atom 1739 volume 0.52712568650413549331545937093324
  1 settings made for volume
set atom 1739 mass 474.41311785372192844079108908772469
  1 settings made for mass
set atom 1740 volume 0.52060949403069645136099552473752
  1 settings made for volume
set atom 1740 mass 468.54854462762682487664278596639633
  1 settings made for mass
set atom 1741 volume 0.52629004363342068995024192190613
  1 settings made for volume
set atom 1741 mass 473.66103927007861784659326076507568
  1 settings made for mass
set atom 1742 volume 0.52182967319907958003710746197612
  1 settings made for volume
set atom 1742 mass 469.64670587917163402380538173019886
  1 settings made for mass
set atom 1743 volume 0.52094806497448009618977948775864
  1 settings made for volume
set atom 1743 mass 468.85325847703211366024333983659744
  1 settings made for mass
set atom 1744 volume 0.52311134237966383508933176926803
  1 settings made for volume
set atom 1744 mass 470.80020814169745335675543174147606
  1 settings made for mass
set atom 1745 volume 0.52078595835767405031191401576507
  1 settings made for volume
set atom 1745 mass 468.70736252190664572481182403862476
  1 settings made for mass
set atom 1746 volume 0.52935854716959118704266984423157
  1 settings made for volume
set atom 1746 mass 476.42269245263207722018705680966377
  1 settings made for mass
set atom 1747 volume 0.52498381465013632674043719816837
  1 settings made for volume
set atom 1747 mass 472.48543318512270161591004580259323
  1 settings made for mass
set atom 1748 volume 0.52091942695702941890090187371243
  1 settings made for volume
set atom 1748 mass 468.82748426132650365616427734494209
  1 settings made for mass
set atom 1749 volume 0.52686884642445230841900638552033
  1 settings made for volume
set atom 1749 mass 474.18196178200707890937337651848793
  1 settings made for mass
set atom 1750 volume 0.52423368013453230940257299153018
  1 settings made for volume
set atom 1750 mass 471.81031212107905048469547182321548
  1 settings made for mass
set atom 1751 volume 0.52619968190891286408117366590886
  1 settings made for volume
set atom 1751 mass 473.57971371802159410435706377029419
  1 settings made for mass
set atom 1752 volume 0.52520579752908058690508141808095
  1 settings made for volume
set atom 1752 mass 472.68521777617252155323512852191925
  1 settings made for mass
set atom 1753 volume 0.52128906495470073156894841304165
  1 settings made for volume
set atom 1753 mass 469.16015845923067217881907708942890
  1 settings made for mass
set atom 1754 volume 0.52535024453589374004991441324819
  1 settings made for volume
set atom 1754 mass 472.81522008230439269027556292712688
  1 settings made for mass
set atom 1755 volume 0.52093196223054927251894241635455
  1 settings made for volume
set atom 1755 mass 468.83876600749437102422234602272511
  1 settings made for mass
set atom 1756 volume 0.52404791696519359422978823204176
  1 settings made for volume
set atom 1756 mass 471.64312526867422548093600198626518
  1 settings made for mass
set atom 1757 volume 0.53089443643035350017811424550018
  1 settings made for volume
set atom 1757 mass 477.80499278731815593346254900097847
  1 settings made for mass
set atom 1758 volume 0.51538501071437436973354806468706
  1 settings made for volume
set atom 1758 mass 463.84650964293695096785086207091808
  1 settings made for mass
set atom 1759 volume 0.51924948108342028341155582893407
  1 settings made for volume
set atom 1759 mass 467.32453297507822753686923533678055
  1 settings made for mass
set atom 1760 volume 0.52119744619320285128338809954585
  1 settings made for volume
set atom 1760 mass 469.07770157388256393460324034094810
  1 settings made for mass
set atom 1761 volume 0.52286974867864677296580566689954
  1 settings made for volume
set atom 1761 mass 470.58277381078210055420640856027603
  1 settings made for mass
set atom 1762 volume 0.52409619644256100201573644881137
  1 settings made for volume
set atom 1762 mass 471.68657679830488405059440992772579
  1 settings made for mass
set atom 1763 volume 0.52486846280239241036014163910295
  1 settings made for volume
set atom 1763 mass 472.38161652215319463721243664622307
  1 settings made for mass
set atom 1764 volume 0.51797450894581975600061696241028
  1 settings made for volume
set atom 1764 mass 466.17705805123779327914235182106495
  1 settings made for mass
set atom 1765 volume 0.52571060730921259640524567657849
  1 settings made for volume
set atom 1765 mass 473.13954657829134475832688622176647
  1 settings made for mass
set atom 1766 volume 0.52638051067071189859092328333645
  1 settings made for volume
set atom 1766 mass 473.74245960364072516313171945512295
  1 settings made for mass
set atom 1767 volume 0.52183460307279938561464405211154
  1 settings made for volume
set atom 1767 mass 469.65114276551946659310488030314445
  1 settings made for mass
set atom 1768 volume 0.52249415154445166820096346782520
  1 settings made for volume
set atom 1768 mass 470.24473639000649427543976344168186
  1 settings made for mass
set atom 1769 volume 0.52571185438668111000737326321541
  1 settings made for volume
set atom 1769 mass 473.14066894801300122708198614418507
  1 settings made for mass
set atom 1770 volume 0.51871998057992529940207759864279
  1 settings made for volume
set atom 1770 mass 466.84798252193274947785539552569389
  1 settings made for mass
set atom 1771 volume 0.52469867617746779320242467292701
  1 settings made for volume
set atom 1771 mass 472.22880855972101699080667458474636
  1 settings made for mass
set atom 1772 volume 0.52616642845472194611744498615735
  1 settings made for volume
set atom 1772 mass 473.54978560924973862711340188980103
  1 settings made for mass
set atom 1773 volume 0.52655696658431927481558432191378
  1 settings made for volume
set atom 1773 mass 473.90126992588733401134959422051907
  1 settings made for mass
set atom 1774 volume 0.52025322677607621635331724974094
  1 settings made for volume
set atom 1774 mass 468.22790409846857073716819286346436
  1 settings made for mass
set atom 1775 volume 0.52671732060502574057636593352072
  1 settings made for volume
set atom 1775 mass 474.04558854452318428229773417115211
  1 settings made for mass
set atom 1776 volume 0.52402350261209607040768787555862
  1 settings made for volume
set atom 1776 mass 471.62115235088646159056224860250950
  1 settings made for mass
set atom 1777 volume 0.52432673267540297334932120065787
  1 settings made for volume
set atom 1777 mass 471.89405940786269866293878294527531
  1 settings made for mass
set atom 1778 volume 0.51727452033089615923699966515414
  1 settings made for volume
set atom 1778 mass 465.54706829780656107686809264123440
  1 settings made for mass
set atom 1779 volume 0.51691539526976826302018253045389
  1 settings made for volume
set atom 1779 mass 465.22385574279144293541321530938148
  1 settings made for mass
set atom 1780 volume 0.52181149114361624619107260514284
  1 settings made for volume
set atom 1780 mass 469.63034202925462068378692492842674
  1 settings made for mass
set atom 1781 volume 0.52127950415391943739251701117610
  1 settings made for volume
set atom 1781 mass 469.15155373852746834018034860491753
  1 settings made for mass
set atom 1782 volume 0.52351227570994196547360388649395
  1 settings made for volume
set atom 1782 mass 471.16104813894776270899455994367599
  1 settings made for mass
set atom 1783 volume 0.52243747246349503399187597096898
  1 settings made for volume
set atom 1783 mass 470.19372521714552703997469507157803
  1 settings made for mass
set atom 1784 volume 0.52504196790593737897978598994086
  1 settings made for volume
set atom 1784 mass 472.53777111534361665690084919333458
  1 settings made for mass
set atom 1785 volume 0.52394404831480689832545749595738
  1 settings made for volume
set atom 1785 mass 471.54964348332623558235354721546173
  1 settings made for mass
set atom 1786 volume 0.52379275847859241288517750945175
  1 settings made for volume
set atom 1786 mass 471.41348263073319913019076921045780
  1 settings made for mass
set atom 1787 volume 0.51898415353384808046399712111452
  1 settings made for volume
set atom 1787 mass 467.08573818046329506614711135625839
  1 settings made for mass
set atom 1788 volume 0.52852903168954801227386042228318
  1 settings made for volume
set atom 1788 mass 475.67612852059323813591618090867996
  1 settings made for mass
set atom 1789 volume 0.52891141827600451907898104764172
  1 settings made for volume
set atom 1789 mass 476.02027644840404718706849962472916
  1 settings made for mass
set atom 1790 volume 0.52026728844815861574346627094201
  1 settings made for volume
set atom 1790 mass 468.24055960334277415313408710062504
  1 settings made for mass
set atom 1791 volume 0.52483635464275590898353129887255
  1 settings made for volume
set atom 1791 mass 472.35271917848029943343135528266430
  1 settings made for mass
set atom 1792 volume 0.52467903764342771477657834111596
  1 settings made for volume
set atom 1792 mass 472.21113387908496861200546845793724
  1 settings made for mass
set atom 1793 volume 0.52099906482387281503321219133795
  1 settings made for volume
set atom 1793 mass 468.89915834148553130944492295384407
  1 settings made for mass
set atom 1794 volume 0.52270079823778703431713665850111
  1 settings made for volume
set atom 1794 mass 470.43071841400831090140854939818382
  1 settings made for mass
set atom 1795 volume 0.52729858386245997969865584309446
  1 settings made for volume
set atom 1795 mass 474.56872547621395597161608748137951
  1 settings made for mass
set atom 1796 volume 0.53233816314601667407657714647939
  1 settings made for volume
set atom 1796 mass 479.10434683141500045167049393057823
  1 settings made for mass
set atom 1797 volume 0.52511187621754351617653355788207
  1 settings made for volume
set atom 1797 mass 472.60068859578916544705862179398537
  1 settings made for mass
set atom 1798 volume 0.52552063335514254127645017433679
  1 settings made for volume
set atom 1798 mass 472.96857001962825961527414619922638
  1 settings made for mass
set atom 1799 volume 0.52472885502148669534250302604050
  1 settings made for volume
set atom 1799 mass 472.25596951933800937695195898413658
  1 settings made for mass
set atom 1800 volume 0.51912246491852476193429311024374
  1 settings made for volume
set atom 1800 mass 467.21021842667227019774145446717739
  1 settings made for mass
set atom 1801 volume 0.51895977440229390520443075729418
  1 settings made for volume
set atom 1801 mass 467.06379696206448670636746101081371
  1 settings made for mass
set atom 1802 volume 0.51674630057495951618307117314544
  1 settings made for volume
set atom 1802 mass 465.07167051746358765740296803414822
  1 settings made for mass
set atom 1803 volume 0.52322845973708409506031102864654
  1 settings made for volume
set atom 1803 mass 470.90561376337569754468859173357487
  1 settings made for mass
set atom 1804 volume 0.52672293404524861415438863332383
  1 settings made for volume
set atom 1804 mass 474.05064064072377050251816399395466
  1 settings made for mass
set atom 1805 volume 0.52344191307190823803097146083019
  1 settings made for volume
set atom 1805 mass 471.09772176471739157932461239397526
  1 settings made for mass
set atom 1806 volume 0.52387376341225544429391902667703
  1 settings made for volume
set atom 1806 mass 471.48638707102992384534445591270924
  1 settings made for mass
set atom 1807 volume 0.52529148274340220492462094625807
  1 settings made for volume
set atom 1807 mass 472.76233446906201152160065248608589
  1 settings made for mass
set atom 1808 volume 0.52302836985602363384373347798828
  1 settings made for volume
set atom 1808 mass 470.72553287042126157757593318820000
  1 settings made for mass
set atom 1809 volume 0.52160480491343319542352219286840
  1 settings made for volume
set atom 1809 mass 469.44432442208989186838152818381786
  1 settings made for mass
set atom 1810 volume 0.52710094537767504530023643383174
  1 settings made for volume
set atom 1810 mass 474.39085083990755720151355490088463
  1 settings made for mass
set atom 1811 volume 0.52473068547774104342096279651741
  1 settings made for volume
set atom 1811 mass 472.25761692996695728652412071824074
  1 settings made for mass
set atom 1812 volume 0.52736915038220300022686615193379
  1 settings made for volume
set atom 1812 mass 474.63223534398269976009032689034939
  1 settings made for mass
set atom 1813 volume 0.51948564560989363148024722249829
  1 settings made for volume
set atom 1813 mass 467.53708104890426966449012979865074
  1 settings made for mass
set atom 1814 volume 0.53019620571570491573965000497992
  1 settings made for volume
set atom 1814 mass 477.17658514413443526791525073349476
  1 settings made for mass
set atom 1815 volume 0.52627903637352080323807967943139
  1 settings made for volume
set atom 1815 mass 473.65113273616873357241274788975716
  1 settings made for mass
set atom 1816 volume 0.51788302984967382602832230986678
  1 settings made for volume
set atom 1816 mass 466.09472686470644475775770843029022
  1 settings made for mass
set atom 1817 volume 0.52449895841673555008100038321572
  1 settings made for volume
set atom 1817 mass 472.04906257506200972784426994621754
  1 settings made for mass
set atom 1818 volume 0.52023963984952692474195146132843
  1 settings made for volume
set atom 1818 mass 468.21567586457422294188290834426880
  1 settings made for mass
set atom 1819 volume 0.52165316495429392418259340047371
  1 settings made for volume
set atom 1819 mass 469.48784845886450511898146942257881
  1 settings made for mass
set atom 1820 volume 0.52512737405994225348138115805341
  1 settings made for volume
set atom 1820 mass 472.61463665394802546870778314769268
  1 settings made for mass
set atom 1821 volume 0.52725767053544725371239110245369
  1 settings made for volume
set atom 1821 mass 474.53190348190253189386567100882530
  1 settings made for mass
set atom 1822 volume 0.52930347369004937529979315513629
  1 settings made for volume
set atom 1822 mass 476.37312632104442400304833427071571
  1 settings made for mass
set atom 1823 volume 0.52258691378774335678514262326644
  1 settings made for volume
set atom 1823 mass 470.32822240896899756990023888647556
  1 settings made for mass
set atom 1824 volume 0.52078310376309611129386212269310
  1 settings made for volume
set atom 1824 mass 468.70479338678649128269171342253685
  1 settings made for mass
set atom 1825 volume 0.51766440907631394718890760486829
  1 settings made for volume
set atom 1825 mass 465.89796816868255291410605423152447
  1 settings made for mass
set atom 1826 volume 0.51761986028043627250383451610105
  1 settings made for volume
set atom 1826 mass 465.85787425239266212884103879332542
  1 settings made for mass
set atom 1827 volume 0.51909418018765207669673600321403
  1 settings made for volume
set atom 1827 mass 467.18476216888689123152289539575577
  1 settings made for mass
set atom 1828 volume 0.52893663302431359607425065405550
  1 settings made for volume
set atom 1828 mass 476.04296972188222980548744089901447
  1 settings made for mass
set atom 1829 volume 0.52428951460580042187586968793767
  1 settings made for volume
set atom 1829 mass 471.86056314522039656367269344627857
  1 settings made for mass
set atom 1830 volume 0.52882118657159860042327181872679
  1 settings made for volume
set atom 1830 mass 475.93906791443873771640937775373459
  1 settings made for mass
set atom 1831 volume 0.52359975451533480317323210329050
  1 settings made for volume
set atom 1831 mass 471.23977906380133617858518846333027
  1 settings made for mass
set atom 1832 volume 0.51868401737273872598166235547978
  1 settings made for volume
set atom 1832 mass 466.81561563546483739628456532955170
  1 settings made for mass
set atom 1833 volume 0.52684987741499567093228506564628
  1 settings made for volume
set atom 1833 mass 474.16488967349607719370396807789803
  1 settings made for mass
set atom 1834 volume 0.52415944258106739184199796000030
  1 settings made for volume
set atom 1834 mass 471.74349832296064732872764579951763
  1 settings made for mass
set atom 1835 volume 0.52187273720515781061379811944789
  1 settings made for volume
set atom 1835 mass 469.68546348464201400929596275091171
  1 settings made for mass
set atom 1836 volume 0.52462294144327914491299225119292
  1 settings made for volume
set atom 1836 mass 472.16064729895123264213907532393932
  1 settings made for mass
set atom 1837 volume 0.51938775393282221592983205482597
  1 settings made for volume
set atom 1837 mass 467.44897853954000765952514484524727
  1 settings made for mass
set atom 1838 volume 0.52676950823843882165675722717424
  1 settings made for volume
set atom 1838 mass 474.09255741459492128342390060424805
  1 settings made for mass
set atom 1839 volume 0.52328222662309187285245570819825
  1 settings made for volume
set atom 1839 mass 470.95400396078269977806485258042812
  1 settings made for mass
set atom 1840 volume 0.52732480104112477992117646863335
  1 settings made for volume
set atom 1840 mass 474.59232093701228905047173611819744
  1 settings made for mass
set atom 1841 volume 0.52325955166094884063454628631007
  1 settings made for volume
set atom 1841 mass 470.93359649485392992573906667530537
  1 settings made for mass
set atom 1842 volume 0.52537288758374212083168686149293
  1 settings made for volume
set atom 1842 mass 472.83559882536792429164052009582520
  1 settings made for mass
set atom 1843 volume 0.52595358606282038849144555570092
  1 settings made for volume
set atom 1843 mass 473.35822745653837273493991233408451
  1 settings made for mass
set atom 1844 volume 0.52448994875160093176447162477416
  1 settings made for volume
set atom 1844 mass 472.04095387644082393308053724467754
  1 settings made for mass
set atom 1845 volume 0.52376103415205710334134892036673
  1 settings made for volume
set atom 1845 mass 471.38493073685140188899822533130646
  1 settings made for mass
set atom 1846 volume 0.52577848769158153086067386539071
  1 settings made for volume
set atom 1846 mass 473.20063892242336578419781289994717
  1 settings made for mass
set atom 1847 volume 0.52430555813481993787661394890165
  1 settings made for volume
set atom 1847 mass 471.87500232133794497713097371160984
  1 settings made for mass
set atom 1848 volume 0.51806318091090119981600992105086
  1 settings made for volume
set atom 1848 mass 466.25686281981109004846075549721718
  1 settings made for mass
set atom 1849 volume 0.52196485595986097383303103924845
  1 settings made for volume
set atom 1849 mass 469.76837036387485113664297387003899
  1 settings made for mass
set atom 1850 volume 0.52107386588899362589444308468956
  1 settings made for volume
set atom 1850 mass 468.96647930009424953823327086865902
  1 settings made for mass
set atom 1851 volume 0.52136417401274037786151893669739
  1 settings made for volume
set atom 1851 mass 469.22775661146636139164911583065987
  1 settings made for mass
set atom 1852 volume 0.52112724064288684644452587235719
  1 settings made for volume
set atom 1852 mass 469.01451657859814758921856991946697
  1 settings made for mass
set atom 1853 volume 0.52932036360254108853240495591308
  1 settings made for volume
set atom 1853 mass 476.38832724228700499224942177534103
  1 settings made for mass
set atom 1854 volume 0.52461683400702452395591990352841
  1 settings made for volume
set atom 1854 mass 472.15515060632208133029052987694740
  1 settings made for mass
set atom 1855 volume 0.52557999548895617536459212715272
  1 settings made for volume
set atom 1855 mass 473.02199594006054894634871743619442
  1 settings made for mass
set atom 1856 volume 0.52845436051103644725657204617164
  1 settings made for volume
set atom 1856 mass 475.60892445993277988236513920128345
  1 settings made for mass
set atom 1857 volume 0.52372715545961012750808549753856
  1 settings made for volume
set atom 1857 mass 471.35443991364911653363378718495369
  1 settings made for mass
set atom 1858 volume 0.52201410677732318355026563949650
  1 settings made for volume
set atom 1858 mass 469.81269609959088029427221044898033
  1 settings made for mass
set atom 1859 volume 0.52289872584332408589347096494748
  1 settings made for volume
set atom 1859 mass 470.60885325899170084085199050605297
  1 settings made for mass
set atom 1860 volume 0.52031368918924569832995530305197
  1 settings made for volume
set atom 1860 mass 468.28232027032112227971083484590054
  1 settings made for mass
set atom 1861 volume 0.52131219866219047354150006867712
  1 settings made for volume
set atom 1861 mass 469.18097879597144128638319671154022
  1 settings made for mass
set atom 1862 volume 0.51668769179719709061515686698840
  1 settings made for volume
set atom 1862 mass 465.01892261747735801691305823624134
  1 settings made for mass
set atom 1863 volume 0.52265667319048603189912682864815
  1 settings made for volume
set atom 1863 mass 470.39100587143741449835943058133125
  1 settings made for mass
set atom 1864 volume 0.52690704617262851261472178521217
  1 settings made for volume
set atom 1864 mass 474.21634155536565913280355744063854
  1 settings made for mass
set atom 1865 volume 0.52154321907331058216783503667102
  1 settings made for volume
set atom 1865 mass 469.38889716597952883603284135460854
  1 settings made for mass
set atom 1866 volume 0.52276667286549283186758430019836
  1 settings made for volume
set atom 1866 mass 470.49000557894356688848347403109074
  1 settings made for mass
set atom 1867 volume 0.52733513728888703475661259290064
  1 settings made for volume
set atom 1867 mass 474.60162355999835881448234431445599
  1 settings made for mass
set atom 1868 volume 0.52769545955727903407961321136099
  1 settings made for volume
set atom 1868 mass 474.92591360155114443841739557683468
  1 settings made for mass
set atom 1869 volume 0.52050250213287063694167500216281
  1 settings made for volume
set atom 1869 mass 468.45225191958354571397649124264717
  1 settings made for mass
set atom 1870 volume 0.52242076375870027948877805101802
  1 settings made for volume
set atom 1870 mass 470.17868738283027596480678766965866
  1 settings made for mass
set atom 1871 volume 0.52428154677850191678345481705037
  1 settings made for volume
set atom 1871 mass 471.85339210065171755559276789426804
  1 settings made for mass
set atom 1872 volume 0.51771913892286869351977429687395
  1 settings made for volume
set atom 1872 mass 465.94722503058181928281555883586407
  1 settings made for mass
set atom 1873 volume 0.53234455810879399706436743144877
  1 settings made for volume
set atom 1873 mass 479.11010229791457959436229430139065
  1 settings made for mass
set atom 1874 volume 0.52621687202977163178019281986053
  1 settings made for volume
set atom 1874 mass 473.59518482679447970440378412604332
  1 settings made for mass
set atom 1875 volume 0.51962704942675319585987381287850
  1 settings made for volume
set atom 1875 mass 467.66434448407790114288218319416046
  1 settings made for mass
set atom 1876 volume 0.52353618117805877929527014202904
  1 settings made for volume
set atom 1876 mass 471.18256306025290314209996722638607
  1 settings made for mass
set atom 1877 volume 0.52480454530188935802215155490558
  1 settings made for volume
set atom 1877 mass 472.32409077170041200588457286357880
  1 settings made for mass
set atom 1878 volume 0.52773227037739744993416479701409
  1 settings made for volume
set atom 1878 mass 474.95904333965768273628782480955124
  1 settings made for mass
set atom 1879 volume 0.52501747497355499838533887668746
  1 settings made for volume
set atom 1879 mass 472.51572747619951542219496332108974
  1 settings made for mass
set atom 1880 volume 0.51608966568570746602517829160206
  1 settings made for volume
set atom 1880 mass 464.48069911713673718622885644435883
  1 settings made for mass
set atom 1881 volume 0.52206005951834077993822802454815
  1 settings made for volume
set atom 1881 mass 469.85405356650670682938653044402599
  1 settings made for mass
set atom 1882 volume 0.52620512710616085261250418625423
  1 settings made for volume
set atom 1882 mass 473.58461439554474736723932437598705
  1 settings made for mass
set atom 1883 volume 0.51840553343260387109125986171421
  1 settings made for volume
set atom 1883 mass 466.56498008934346444220864214003086
  1 settings made for mass
set atom 1884 volume 0.52163635914407169291706622971105
  1 settings made for volume
set atom 1884 mass 469.47272322966449564773938618600368
  1 settings made for mass
set atom 1885 volume 0.52221262526389355951295101476717
  1 settings made for volume
set atom 1885 mass 469.99136273750417558403569273650646
  1 settings made for mass
set atom 1886 volume 0.52456235656286054336305824108422
  1 settings made for volume
set atom 1886 mass 472.10612090657446060504298657178879
  1 settings made for mass
set atom 1887 volume 0.52997883902673537104277556863963
  1 settings made for volume
set atom 1887 mass 476.98095512406183615894406102597713
  1 settings made for mass
set atom 1888 volume 0.51987261061883760504542806302197
  1 settings made for volume
set atom 1888 mass 467.88534955695382677731686271727085
  1 settings made for mass
set atom 1889 volume 0.52410513881568376870490055807750
  1 settings made for volume
set atom 1889 mass 471.69462493411538162035867571830750
  1 settings made for mass
set atom 1890 volume 0.52249226217334610034015440760413
  1 settings made for volume
set atom 1890 mass 470.24303595601151073424261994659901
  1 settings made for mass
set atom 1891 volume 0.52301078237415454808001413766760
  1 settings made for volume
set atom 1891 mass 470.70970413673910570651059970259666
  1 settings made for mass
set atom 1892 volume 0.52175748349702433248609168003895
  1 settings made for volume
set atom 1892 mass 469.58173514732192188603221438825130
  1 settings made for mass
set atom 1893 volume 0.51535067872019268975236627738923
  1 settings made for volume
set atom 1893 mass 463.81561084817343498798436485230923
  1 settings made for mass
set atom 1894 volume 0.52836551957134625379097769837244
  1 settings made for volume
set atom 1894 mass 475.52896761421163773775333538651466
  1 settings made for mass
set atom 1895 volume 0.52206293552538518554229085566476
  1 settings made for volume
set atom 1895 mass 469.85664197284665988263441249728203
  1 settings made for mass
set atom 1896 volume 0.52410808046319168340687610907480
  1 settings made for volume
set atom 1896 mass 471.69727241687252217161585576832294
  1 settings made for mass
set atom 1897 volume 0.52538500582534053418015673742048
  1 settings made for volume
set atom 1897 mass 472.84650524280647232444607652723789
  1 settings made for mass
set atom 1898 volume 0.52231390524095022698247703374363
  1 settings made for volume
set atom 1898 mass 470.08251471685520073151565156877041
  1 settings made for mass
set atom 1899 volume 0.52558696487371592276360843243310
  1 settings made for volume
set atom 1899 mass 473.02826838634433670449652709066868
  1 settings made for mass
set atom 1900 volume 0.51946352991910171859046840836527
  1 settings made for volume
set atom 1900 mass 467.51717692719154229052946902811527
  1 settings made for mass
set atom 1901 volume 0.52083357778569217000352864488377
  1 settings made for volume
set atom 1901 mass 468.75022000712294811819447204470634
  1 settings made for mass
set atom 1902 volume 0.52268828508107245678360186502687
  1 settings made for volume
set atom 1902 mass 470.41945657296520266754669137299061
  1 settings made for mass
set atom 1903 volume 0.52344532846055802366436182637699
  1 settings made for volume
set atom 1903 mass 471.10079561450220353435724973678589
  1 settings made for mass
set atom 1904 volume 0.52129491890087720218360800572555
  1 settings made for volume
set atom 1904 mass 469.16542701078947175119537860155106
  1 settings made for mass
set atom 1905 volume 0.52325209122231453040541282462073
  1 settings made for volume
set atom 1905 mass 470.92688210008310534249176271259785
  1 settings made for mass
set atom 1906 volume 0.52311596724725617502116392643075
  1 settings made for volume
set atom 1906 mass 470.80437052253057572670513764023781
  1 settings made for mass
set atom 1907 volume 0.52313241074402772046170184694347
  1 settings made for volume
set atom 1907 mass 470.81916966962495507686981000006199
  1 settings made for mass
set atom 1908 volume 0.51667608191302460962646136977128
  1 settings made for volume
set atom 1908 mass 465.00847372172216864782967604696751
  1 settings made for mass
set atom 1909 volume 0.51970219795194638745527981882333
  1 settings made for volume
set atom 1909 mass 467.73197815675172250848845578730106
  1 settings made for mass
set atom 1910 volume 0.52477156368093302862831706079305
  1 settings made for volume
set atom 1910 mass 472.29440731283972354503930546343327
  1 settings made for mass
set atom 1911 volume 0.52496600353723099630087745026685
  1 settings made for volume
set atom 1911 mass 472.46940318350789311807602643966675
  1 settings made for mass
set atom 1912 volume 0.52714975882543013696590605832171
  1 settings made for volume
set atom 1912 mass 474.43478294288712504567229188978672
  1 settings made for mass
set atom 1913 volume 0.52559388573495169350024980303715
  1 settings made for volume
set atom 1913 mass 473.03449716145649972531828097999096
  1 settings made for mass
set atom 1914 volume 0.52604708859308757507022846766631
  1 settings made for volume
set atom 1914 mass 473.44237973377880734915379434823990
  1 settings made for mass
set atom 1915 volume 0.52693159768572184198376362473937
  1 settings made for volume
set atom 1915 mass 474.23843791714966755534987896680832
  1 settings made for mass
set atom 1916 volume 0.52134746842355883522657222783891
  1 settings made for volume
set atom 1916 mass 469.21272158120297035566181875765324
  1 settings made for mass
set atom 1917 volume 0.52697152443318806547267740825191
  1 settings made for volume
set atom 1917 mass 474.27437198986928024169174022972584
  1 settings made for mass
set atom 1918 volume 0.52372560013785818266995875092107
  1 settings made for volume
set atom 1918 mass 471.35304012407237905790680088102818
  1 settings made for mass
set atom 1919 volume 0.52385633283978239038702895413735
  1 settings made for volume
set atom 1919 mass 471.47069955580417399687576107680798
  1 settings made for mass
set atom 1920 volume 0.52256631009912146712537150960998
  1 settings made for volume
set atom 1920 mass 470.30967908920933950867038220167160
  1 settings made for mass
set atom 1921 volume 0.52388399923209660880019100659410
  1 settings made for volume
set atom 1921 mass 471.49559930888693770612007938325405
  1 settings made for mass
set atom 1922 volume 0.52348446221119027121915223688120
  1 settings made for volume
set atom 1922 mass 471.13601599007125741991330869495869
  1 settings made for mass
set atom 1923 volume 0.52342068607417002734649713602266
  1 settings made for volume
set atom 1923 mass 471.07861746675303038500715047121048
  1 settings made for mass
set atom 1924 volume 0.52403367074360063249116592487553
  1 settings made for volume
set atom 1924 mass 471.63030366924056124844355508685112
  1 settings made for mass
set atom 1925 volume 0.52636486007768212846968935991754
  1 settings made for volume
set atom 1925 mass 473.72837406991391162591753527522087
  1 settings made for mass
set atom 1926 volume 0.52389442210252512577284278449952
  1 settings made for volume
set atom 1926 mass 471.50497989227261541600455529987812
  1 settings made for mass
set atom 1927 volume 0.52768970155562355817124853274436
  1 settings made for volume
set atom 1927 mass 474.92073140006118592282291501760483
  1 settings made for mass
set atom 1928 volume 0.51886072702668672995685028581647
  1 settings made for volume
set atom 1928 mass 466.97465432401804719120264053344727
  1 settings made for mass
set atom 1929 volume 0.52595884886702759519749861283344
  1 settings made for volume
set atom 1929 mass 473.36296398032482102280482649803162
  1 settings made for mass
set atom 1930 volume 0.52287469335684444438072659977479
  1 settings made for volume
set atom 1930 mass 470.58722402116001148897339589893818
  1 settings made for mass
set atom 1931 volume 0.52944429142593862902543833115487
  1 settings made for volume
set atom 1931 mass 476.49986228334478255419526249170303
  1 settings made for mass
set atom 1932 volume 0.52643571217746032431250569061376
  1 settings made for volume
set atom 1932 mass 473.79214095971428832854144275188446
  1 settings made for mass
set atom 1933 volume 0.52194808503313705472237415960990
  1 settings made for volume
set atom 1933 mass 469.75327652982332438114099204540253
  1 settings made for mass
set atom 1934 volume 0.52867223632138682365422255315934
  1 settings made for volume
set atom 1934 mass 475.80501268924814439742476679384708
  1 settings made for mass
set atom 1935 volume 0.52528506468635416393198056539404
  1 settings made for volume
set atom 1935 mass 472.75655821771874798287171870470047
  1 settings made for mass
set atom 1936 volume 0.51938899065535737431531515539973
  1 settings made for volume
set atom 1936 mass 467.45009158982162489337497390806675
  1 settings made for mass
set atom 1937 volume 0.52811699365417796858679366778233
  1 settings made for volume
set atom 1937 mass 475.30529428876019437666400335729122
  1 settings made for mass
set atom 1938 volume 0.52261004729831217474611548823304
  1 settings made for volume
set atom 1938 mass 470.34904256848096792964497581124306
  1 settings made for mass
set atom 1939 volume 0.52664978337335066616020640140050
  1 settings made for volume
set atom 1939 mass 473.98480503601558666559867560863495
  1 settings made for mass
set atom 1940 volume 0.52242598236574355752281917375512
  1 settings made for volume
set atom 1940 mass 470.18338412916921242867829278111458
  1 settings made for mass
set atom 1941 volume 0.52262186244269215329438793560257
  1 settings made for volume
set atom 1941 mass 470.35967619842296016940963454544544
  1 settings made for mass
set atom 1942 volume 0.52420441663849004498842987231910
  1 settings made for volume
set atom 1942 mass 471.78397497464106891129631549119949
  1 settings made for mass
set atom 1943 volume 0.52626047693934774329704850970302
  1 settings made for volume
set atom 1943 mass 473.63442924541294587470474652945995
  1 settings made for mass
set atom 1944 volume 0.52214406496352727682364047723240
  1 settings made for volume
set atom 1944 mass 469.92965846717453359815408475697041
  1 settings made for mass
set atom 1945 volume 0.52230073848047076090495011158055
  1 settings made for volume
set atom 1945 mass 470.07066463242369991348823532462120
  1 settings made for mass
set atom 1946 volume 0.52556525791496910837707901009708
  1 settings made for volume
set atom 1946 mass 473.00873212347221397067187353968620
  1 settings made for mass
set atom 1947 volume 0.52096930203704683304266609411570
  1 settings made for volume
set atom 1947 mass 468.87237183334212886620662175118923
  1 settings made for mass
set atom 1948 volume 0.52793941744061001486443274188787
  1 settings made for volume
set atom 1948 mass 475.14547569654899916713475249707699
  1 settings made for mass
set atom 1949 volume 0.52887374946857379498510454141069
  1 settings made for volume
set atom 1949 mass 475.98637452171641371023724786937237
  1 settings made for mass
set atom 1950 volume 0.52342994341760429310994595653028
  1 settings made for volume
set atom 1950 mass 471.08694907584384736765059642493725
  1 settings made for mass
set atom 1951 volume 0.51953842051344900632159351516748
  1 settings made for volume
set atom 1951 mass 467.58457846210410480125574395060539
  1 settings made for mass
set atom 1952 volume 0.52518975964689051938449892986682
  1 settings made for volume
set atom 1952 mass 472.67078368220148831824189983308315
  1 settings made for mass
set atom 1953 volume 0.52798172046786939759499546198640
  1 settings made for volume
set atom 1953 mass 475.18354842108243474285700358450413
  1 settings made for mass
set atom 1954 volume 0.52360507688612190069221696830937
  1 settings made for volume
set atom 1954 mass 471.24456919750969063898082822561264
  1 settings made for mass
set atom 1955 volume 0.52127676230684949487681478785817
  1 settings made for volume
set atom 1955 mass 469.14908607616456492905854247510433
  1 settings made for mass
set atom 1956 volume 0.52013995182732986055640367339947
  1 settings made for volume
set atom 1956 mass 468.12595664459689714931300841271877
  1 settings made for mass
set atom 1957 volume 0.52465035107510926692953034944367
  1 settings made for volume
set atom 1957 mass 472.18531596759834201293415389955044
  1 settings made for mass
set atom 1958 volume 0.52815672256757795199888505521812
  1 settings made for volume
set atom 1958 mass 475.34105031082015102583682164549828
  1 settings made for mass
set atom 1959 volume 0.52578230534305125942751146794762
  1 settings made for volume
set atom 1959 mass 473.20407480874615657739923335611820
  1 settings made for mass
set atom 1960 volume 0.52058095882245059016213417635299
  1 settings made for volume
set atom 1960 mass 468.52286294020552759320707991719246
  1 settings made for mass
set atom 1961 volume 0.52411646512131193631489622930530
  1 settings made for volume
set atom 1961 mass 471.70481860918073380162240937352180
  1 settings made for mass
set atom 1962 volume 0.52048060085061786939064631951624
  1 settings made for volume
set atom 1962 mass 468.43254076555609799470403231680393
  1 settings made for mass
set atom 1963 volume 0.51748013497329747867325977495057
  1 settings made for volume
set atom 1963 mass 465.73212147596774457269930280745029
  1 settings made for mass
set atom 1964 volume 0.52053778051331156540015854261583
  1 settings made for volume
set atom 1964 mass 468.48400246198042395917582325637341
  1 settings made for mass
set atom 1965 volume 0.52462218036689312050668831943767
  1 settings made for volume
set atom 1965 mass 472.15996233020382533140946179628372
  1 settings made for mass
set atom 1966 volume 0.52552119024671584135433022311190
  1 settings made for volume
set atom 1966 mass 472.96907122204424922529142349958420
  1 settings made for mass
set atom 1967 volume 0.52324286521970797547709253194625
  1 settings made for volume
set atom 1967 mass 470.91857869773718903161352500319481
  1 settings made for mass
set atom 1968 volume 0.52884459770191261096528023699648
  1 settings made for volume
set atom 1968 mass 475.96013793172136274733929894864559
  1 settings made for mass
set atom 1969 volume 0.51891203343077785259396250694408
  1 settings made for volume
set atom 1969 mass 467.02083008770006244958494789898396
  1 settings made for mass
set atom 1970 volume 0.52494419851745977023682598883170
  1 settings made for volume
set atom 1970 mass 472.44977866571377944637788459658623
  1 settings made for mass
set atom 1971 volume 0.52317477569290471439700240807724
  1 settings made for volume
set atom 1971 mass 470.85729812361427093492238782346249
  1 settings made for mass
set atom 1972 volume 0.52352782960097843378832749294816
  1 settings made for volume
set atom 1972 mass 471.17504664088056642867741174995899
  1 settings made for mass
set atom 1973 volume 0.52094662171888639345951332870754
  1 settings made for volume
set atom 1973 mass 468.85195954699776166307856328785419
  1 settings made for mass
set atom 1974 volume 0.52529796194759215133274210529635
  1 settings made for volume
set atom 1974 mass 472.76816575283294241671683266758919
  1 settings made for mass
set atom 1975 volume 0.51889622811101843158354540719301
  1 settings made for volume
set atom 1975 mass 467.00660529991660041559953242540359
  1 settings made for mass
set atom 1976 volume 0.52273692958608630743100320614758
  1 settings made for volume
set atom 1976 mass 470.46323662747767002656473778188229
  1 settings made for mass
set atom 1977 volume 0.53051425866977186540651700852322
  1 settings made for volume
set atom 1977 mass 477.46283280279465088824508711695671
  1 settings made for mass
set atom 1978 volume 0.52562483134689186314858488913160
  1 settings made for volume
set atom 1978 mass 473.06234821220266439922852441668510
  1 settings made for mass
set atom 1979 volume 0.52213535968924962293868929918972
  1 settings made for volume
set atom 1979 mass 469.92182372032465309530380181968212
  1 settings made for mass
set atom 1980 volume 0.52419864563090623477137341978960
  1 settings made for volume
set atom 1980 mass 471.77878106781560063609504140913486
  1 settings made for mass
set atom 1981 volume 0.52260179420340069356143430923112
  1 settings made for volume
set atom 1981 mass 470.34161478306060644172248430550098
  1 settings made for mass
set atom 1982 volume 0.52491414755431087257875333307311
  1 settings made for volume
set atom 1982 mass 472.42273279887979242630535736680031
  1 settings made for mass
set atom 1983 volume 0.51994232815036312000955831535975
  1 settings made for volume
set atom 1983 mass 467.94809533532679779455065727233887
  1 settings made for mass
set atom 1984 volume 0.51996614455588818781706095251138
  1 settings made for volume
set atom 1984 mass 467.96953010029938013758510351181030
  1 settings made for mass
set atom 1985 volume 0.52468084197380659983167561222217
  1 settings made for volume
set atom 1985 mass 472.21275777642591719995834864675999
  1 settings made for mass
set atom 1986 volume 0.52225020942199817941542505650432
  1 settings made for volume
set atom 1986 mass 470.02518847979837346429121680557728
  1 settings made for mass
set atom 1987 volume 0.52560459223410171958335013187025
  1 settings made for volume
set atom 1987 mass 473.04413301069155295408563688397408
  1 settings made for mass
set atom 1988 volume 0.52037471021280956584575960732764
  1 settings made for volume
set atom 1988 mass 468.33723919152862436021678149700165
  1 settings made for mass
set atom 1989 volume 0.52783665255212708355969652984641
  1 settings made for volume
set atom 1989 mass 475.05298729691435255517717450857162
  1 settings made for mass
set atom 1990 volume 0.52341015017817893451024247042369
  1 settings made for volume
set atom 1990 mass 471.06913516036104283557506278157234
  1 settings made for mass
set atom 1991 volume 0.51607367870674192289470738614909
  1 settings made for volume
set atom 1991 mass 464.46631083606774836880504153668880
  1 settings made for mass
set atom 1992 volume 0.52220845529144410690491895365994
  1 settings made for volume
set atom 1992 mass 469.98760976229971220163861289620399
  1 settings made for mass
set atom 1993 volume 0.52734898383866024573762842919677
  1 settings made for volume
set atom 1993 mass 474.61408545479423537472030147910118
  1 settings made for mass
set atom 1994 volume 0.52280664512624364093085205240641
  1 settings made for volume
set atom 1994 mass 470.52598061361925374512793496251106
  1 settings made for mass
set atom 1995 volume 0.52518223525799434536764920267160
  1 settings made for volume
set atom 1995 mass 472.66401173219492193311452865600586
  1 settings made for mass
set atom 1996 volume 0.52318512408392725543393453335739
  1 settings made for volume
set atom 1996 mass 470.86661167553455697998288087546825
  1 settings made for mass
set atom 1997 volume 0.52419408287264790402559810900129
  1 settings made for volume
set atom 1997 mass 471.77467458538313849203404970467091
  1 settings made for mass
set atom 1998 volume 0.52655761609390339117453549988568
  1 settings made for volume
set atom 1998 mass 473.90185448451302363537251949310303
  1 settings made for mass
set atom 1999 volume 0.52534959515126244955496304100961
  1 settings made for volume
set atom 1999 mass 472.81463563613618816816597245633602
  1 settings made for mass
set atom 2000 volume 0.52274243264255171315113557284349
  1 settings made for volume
set atom 2000 mass 470.46818937829652895743492990732193
  1 settings made for mass
set atom 2001 volume 0.52736626120144713958381998963887
  1 settings made for volume
set atom 2001 mass 474.62963508130241052640485577285290
  1 settings made for mass
set atom 2002 volume 0.51927975547129756606068440305535
  1 settings made for volume
set atom 2002 mass 467.35177992416782899454119615256786
  1 settings made for mass
set atom 2003 volume 0.52182028179589434735419217759045
  1 settings made for volume
set atom 2003 mass 469.63825361630489396702614612877369
  1 settings made for mass
set atom 2004 volume 0.52351203519194622337806777068181
  1 settings made for volume
set atom 2004 mass 471.16083167275161258658044971525669
  1 settings made for mass
set atom 2005 volume 0.53122618942745991610365763335722
  1 settings made for volume
set atom 2005 mass 478.10357048471394136868184432387352
  1 settings made for mass
set atom 2006 volume 0.52138471485852566633667493078974
  1 settings made for volume
set atom 2006 mass 469.24624337267312057520030066370964
  1 settings made for mass
set atom 2007 volume 0.52833401609714736313350158525282
  1 settings made for volume
set atom 2007 mass 475.50061448743264236327377147972584
  1 settings made for mass
set atom 2008 volume 0.52603577982479743369026436994318
  1 settings made for volume
set atom 2008 mass 473.43220184231768143945373594760895
  1 settings made for mass
set atom 2009 volume 0.51371058208058240079907363906386
  1 settings made for volume
set atom 2009 mass 462.33952387252418247953755781054497
  1 settings made for mass
set atom 2010 volume 0.52102801700380041438620537519455
  1 settings made for volume
set atom 2010 mass 468.92521530342037294758483767509460
  1 settings made for mass
set atom 2011 volume 0.52190743163631880818797981191892
  1 settings made for volume
set atom 2011 mass 469.71668847268693980367970652878284
  1 settings made for mass
set atom 2012 volume 0.52395022636790333780965056575951
  1 settings made for volume
set atom 2012 mass 471.55520373111301069002365693449974
  1 settings made for mass
set atom 2013 volume 0.52514380262955451250661553785903
  1 settings made for volume
set atom 2013 mass 472.62942236659904438056400977075100
  1 settings made for mass
set atom 2014 volume 0.52647551320917396200371740633273
  1 settings made for volume
set atom 2014 mass 473.82796188825653871390386484563351
  1 settings made for mass
set atom 2015 volume 0.52031419365751629957372870194376
  1 settings made for volume
set atom 2015 mass 468.28277429176466739590978249907494
  1 settings made for mass
set atom 2016 volume 0.52526050757028019955185982325929
  1 settings made for volume
set atom 2016 mass 472.73445681325216582990833558142185
  1 settings made for mass
set atom 2017 volume 0.52230545652836890546666381851537
  1 settings made for volume
set atom 2017 mass 470.07491087553199804460746236145496
  1 settings made for mass
set atom 2018 volume 0.52472455272724938257766780225211
  1 settings made for volume
set atom 2018 mass 472.25209745452445986302336677908897
  1 settings made for mass
set atom 2019 volume 0.52416485188463790567681144239032
  1 settings made for volume
set atom 2019 mass 471.74836669617411644139792770147324
  1 settings made for mass
set atom 2020 volume 0.51854421845490172859882704869960
  1 settings made for volume
set atom 2020 mass 466.68979660941153042585938237607479
  1 settings made for mass
set atom 2021 volume 0.52268502504867209168537556251977
  1 settings made for volume
set atom 2021 mass 470.41652254380488784590852446854115
  1 settings made for mass
set atom 2022 volume 0.51680550581781570240735845800373
  1 settings made for volume
set atom 2022 mass 465.12495523603411129442974925041199
  1 settings made for mass
set atom 2023 volume 0.51790938285622578618472289235797
  1 settings made for volume
set atom 2023 mass 466.11844457060323065888951532542706
  1 settings made for mass
set atom 2024 volume 0.52464941394099473548351397766965
  1 settings made for volume
set atom 2024 mass 472.18447254689527881055255420506001
  1 settings made for mass
set atom 2025 volume 0.51946456990453471203039725878625
  1 settings made for volume
set atom 2025 mass 467.51811291408125725865829735994339
  1 settings made for mass
set atom 2026 volume 0.52412024518251987270645031458116
  1 settings made for volume
set atom 2026 mass 471.70822066426791252524708397686481
  1 settings made for mass
set atom 2027 volume 0.52803624361824941235710184628260
  1 settings made for volume
set atom 2027 mass 475.23261925642447067730245180428028
  1 settings made for mass
set atom 2028 volume 0.52783075824296876721319904390839
  1 settings made for volume
set atom 2028 mass 475.04768241867191136407200247049332
  1 settings made for mass
set atom 2029 volume 0.52007374384590332461186790169450
  1 settings made for volume
set atom 2029 mass 468.06636946131300192064372822642326
  1 settings made for mass
set atom 2030 volume 0.52445400661166796663081868246081
  1 settings made for volume
set atom 2030 mass 472.00860595050119172810809686779976
  1 settings made for mass
set atom 2031 volume 0.52457194745219426490479008862167
  1 settings made for volume
set atom 2031 mass 472.11475270697485484561184421181679
  1 settings made for mass
set atom 2032 volume 0.52292119991052765648475997295463
  1 settings made for volume
set atom 2032 mass 470.62907991947491836981498636305332
  1 settings made for mass
set atom 2033 volume 0.52688095997045369944800086159375
  1 settings made for volume
set atom 2033 mass 474.19286397340835037539363838732243
  1 settings made for mass
set atom 2034 volume 0.52297832965398238780352357935044
  1 settings made for volume
set atom 2034 mass 470.68049668858412815097835846245289
  1 settings made for mass
set atom 2035 volume 0.51841557088605039194106893774006
  1 settings made for volume
set atom 2035 mass 466.57401379744533187476918101310730
  1 settings made for mass
set atom 2036 volume 0.52285442318532260319585702745826
  1 settings made for volume
set atom 2036 mass 470.56898086679035486667999066412449
  1 settings made for mass
set atom 2037 volume 0.53379045783732226304607593192486
  1 settings made for volume
set atom 2037 mass 480.41141205359002697150572203099728
  1 settings made for mass
set atom 2038 volume 0.52685691843041160264959898995585
  1 settings made for volume
set atom 2038 mass 474.17122658737042684151674620807171
  1 settings made for mass
set atom 2039 volume 0.52436446208042908345703381201020
  1 settings made for volume
set atom 2039 mass 471.92801587238619731579092331230640
  1 settings made for mass
set atom 2040 volume 0.52528356090815619960920912490110
  1 settings made for volume
set atom 2040 mass 472.75520481734059785594581626355648
  1 settings made for mass
set atom 2041 volume 0.52498491906472199985955739975907
  1 settings made for volume
set atom 2041 mass 472.48642715824979632088798098266125
  1 settings made for mass
set atom 2042 volume 0.53039728198068814002397175499937
  1 settings made for volume
set atom 2042 mass 477.35755378261933401518035680055618
  1 settings made for mass
set atom 2043 volume 0.52646005178614951880433636688394
  1 settings made for volume
set atom 2043 mass 473.81404660753457847022218629717827
  1 settings made for mass
set atom 2044 volume 0.52066838769017842469821744089131
  1 settings made for volume
set atom 2044 mass 468.60154892116059954787488095462322
  1 settings made for mass
set atom 2045 volume 0.52597751995833219584852713524015
  1 settings made for volume
set atom 2045 mass 473.37976796249898825408308766782284
  1 settings made for mass
set atom 2046 volume 0.52657530855742806785713128192583
  1 settings made for volume
set atom 2046 mass 473.91777770168528149952180683612823
  1 settings made for mass
set atom 2047 volume 0.52557659939334977483582633794867
  1 settings made for volume
set atom 2047 mass 473.01893945401479868451133370399475
  1 settings made for mass
set atom 2048 volume 0.52639645988886618610536061169114
  1 settings made for volume
set atom 2048 mass 473.75681389997959058746346272528172
  1 settings made for mass
set atom 2049 volume 0.52317495737429486890590624170727
  1 settings made for volume
set atom 2049 mass 470.85746163686536647219327278435230
  1 settings made for mass
set atom 2050 volume 0.52258334974372033787659574954887
  1 settings made for volume
set atom 2050 mass 470.32501476934828588127857074141502
  1 settings made for mass
set atom 2051 volume 0.52948750724279081136813829289167
  1 settings made for volume
set atom 2051 mass 476.53875651851171824091579765081406
  1 settings made for mass
set atom 2052 volume 0.52858438143903863082329053213471
  1 settings made for volume
set atom 2052 mass 475.72594329513475486237439326941967
  1 settings made for mass
set atom 2053 volume 0.52175519646684276331427554396214
  1 settings made for volume
set atom 2053 mass 469.57967682015851096366532146930695
  1 settings made for mass
set atom 2054 volume 0.51907145830128098573652550840052
  1 settings made for volume
set atom 2054 mass 467.16431247115286851112614385783672
  1 settings made for mass
set atom 2055 volume 0.52275292254704663896802685485454
  1 settings made for volume
set atom 2055 mass 470.47763029234198484118678607046604
  1 settings made for mass
set atom 2056 volume 0.52710464483676278124590908191749
  1 settings made for volume
set atom 2056 mass 474.39418035308648313730373047292233
  1 settings made for mass
set atom 2057 volume 0.52530763194712692953913801829913
  1 settings made for volume
set atom 2057 mass 472.77686875241425923377391882240772
  1 settings made for mass
set atom 2058 volume 0.52169238111947757730035846179817
  1 settings made for volume
set atom 2058 mass 469.52314300752982489939313381910324
  1 settings made for mass
set atom 2059 volume 0.52462157838669121190378064056858
  1 settings made for volume
set atom 2059 mass 472.15942054802206939712050370872021
  1 settings made for mass
set atom 2060 volume 0.52432287165042212873089511049329
  1 settings made for volume
set atom 2060 mass 471.89058448537991807825164869427681
  1 settings made for mass
set atom 2061 volume 0.52158711373617405726577089808416
  1 settings made for volume
set atom 2061 mass 469.42840236255665331555064767599106
  1 settings made for mass
set atom 2062 volume 0.52284648032494818181703521986492
  1 settings made for volume
set atom 2062 mass 470.56183229245334587176330387592316
  1 settings made for mass
set atom 2063 volume 0.52184078807683664802397061066586
  1 settings made for volume
set atom 2063 mass 469.65670926915299787651747465133667
  1 settings made for mass
set atom 2064 volume 0.52694555458825032001612953536096
  1 settings made for volume
set atom 2064 mass 474.25099912942528135317843407392502
  1 settings made for mass
set atom 2065 volume 0.52327656996669813516120939311804
  1 settings made for volume
set atom 2065 mass 470.94891297002834562590578570961952
  1 settings made for mass
set atom 2066 volume 0.52225060713406912249467950459803
  1 settings made for volume
set atom 2066 mass 470.02554642066223777874256484210491
  1 settings made for mass
set atom 2067 volume 0.52715464890639462947063975661877
  1 settings made for volume
set atom 2067 mass 474.43918401575518828394706360995770
  1 settings made for mass
set atom 2068 volume 0.52083117490227315293793708406156
  1 settings made for volume
set atom 2068 mass 468.74805741204585274317651055753231
  1 settings made for mass
set atom 2069 volume 0.52303558235411284904614603874506
  1 settings made for volume
set atom 2069 mass 470.73202411870158812234876677393913
  1 settings made for mass
set atom 2070 volume 0.52106372554365010252297452097991
  1 settings made for volume
set atom 2070 mass 468.95735298928508427707129158079624
  1 settings made for mass
set atom 2071 volume 0.52181590116382625677005080433446
  1 settings made for volume
set atom 2071 mass 469.63431104744364574798964895308018
  1 settings made for mass
set atom 2072 volume 0.52129839308701686473312975067529
  1 settings made for volume
set atom 2072 mass 469.16855377831518580933334305882454
  1 settings made for mass
set atom 2073 volume 0.52304251691430425630358058697311
  1 settings made for volume
set atom 2073 mass 470.73826522287384932496934197843075
  1 settings made for mass
set atom 2074 volume 0.52659109271773496541158010586514
  1 settings made for volume
set atom 2074 mass 473.93198344596146398544078692793846
  1 settings made for mass
set atom 2075 volume 0.52077981959644559228905791314901
  1 settings made for volume
set atom 2075 mass 468.70183763680103083970607258379459
  1 settings made for mass
set atom 2076 volume 0.52153325500138170145447702452657
  1 settings made for volume
set atom 2076 mass 469.37992950124350954865803942084312
  1 settings made for mass
set atom 2077 volume 0.51959503941681606242752877733437
  1 settings made for volume
set atom 2077 mass 467.63553547513447483652271330356598
  1 settings made for mass
set atom 2078 volume 0.52562139293196208367220378931961
  1 settings made for volume
set atom 2078 mass 473.05925363876588107814313843846321
  1 settings made for mass
set atom 2079 volume 0.52747590632925633880034865796915
  1 settings made for volume
set atom 2079 mass 474.72831569633069648261880502104759
  1 settings made for mass
set atom 2080 volume 0.51789835949576268347982477280311
  1 settings made for volume
set atom 2080 mass 466.10852354618640447370125912129879
  1 settings made for mass
set atom 2081 volume 0.52387747337061085772802471183240
  1 settings made for volume
set atom 2081 mass 471.48972603354980037693167105317116
  1 settings made for mass
set atom 2082 volume 0.52403287095234585279968086979352
  1 settings made for volume
set atom 2082 mass 471.62958385711124265071703121066093
  1 settings made for mass
set atom 2083 volume 0.51867241347373505000462046155008
  1 settings made for volume
set atom 2083 mass 466.80517212636152635241160169243813
  1 settings made for mass
set atom 2084 volume 0.53141844296612394948908786318498
  1 settings made for volume
set atom 2084 mass 478.27659866951154299385962076485157
  1 settings made for mass
set atom 2085 volume 0.52066321328547071622949715674622
  1 settings made for volume
set atom 2085 mass 468.59689195692362773115746676921844
  1 settings made for mass
set atom 2086 volume 0.51631374291876674931245361221954
  1 settings made for volume
set atom 2086 mass 464.68236862689008148663560859858990
  1 settings made for mass
set atom 2087 volume 0.52187265220763578987828168465057
  1 settings made for volume
set atom 2087 mass 469.68538698687223131855716928839684
  1 settings made for mass
set atom 2088 volume 0.52040858277419321797907514337567
  1 settings made for volume
set atom 2088 mass 468.36772449677391705336049199104309
  1 settings made for mass
set atom 2089 volume 0.51992852996699490120136033510789
  1 settings made for volume
set atom 2089 mass 467.93567697029538976494222879409790
  1 settings made for mass
set atom 2090 volume 0.52827425910516012663720175623894
  1 settings made for volume
set atom 2090 mass 475.44683319464411397348158061504364
  1 settings made for mass
set atom 2091 volume 0.52522253722302292278101276679081
  1 settings made for volume
set atom 2091 mass 472.70028350072061584796756505966187
  1 settings made for mass
set atom 2092 volume 0.52830470542268070932578893916798
  1 settings made for volume
set atom 2092 mass 475.47423488041266637083026580512524
  1 settings made for mass
set atom 2093 volume 0.52224340858333673232039018330397
  1 settings made for volume
set atom 2093 mass 470.01906772500308306916849687695503
  1 settings made for mass
set atom 2094 volume 0.52412444871875030205643497538404
  1 settings made for volume
set atom 2094 mass 471.71200384687529094662750139832497
  1 settings made for mass
set atom 2095 volume 0.52905409551072180018849167026929
  1 settings made for volume
set atom 2095 mass 476.14868595964964015365694649517536
  1 settings made for mass
set atom 2096 volume 0.51635220822438021581746170340921
  1 settings made for volume
set atom 2096 mass 464.71698740194221954880049452185631
  1 settings made for mass
set atom 2097 volume 0.52924717409862853667590343320626
  1 settings made for volume
set atom 2097 mass 476.32245668876566924154758453369141
  1 settings made for mass
set atom 2098 volume 0.52013191501764266533314184925985
  1 settings made for volume
set atom 2098 mass 468.11872351587840057618450373411179
  1 settings made for mass
set atom 2099 volume 0.52208053610964411106465377088170
  1 settings made for volume
set atom 2099 mass 469.87248249867968752369051799178123
  1 settings made for mass
set atom 2100 volume 0.52344029949294479386878720106324
  1 settings made for volume
set atom 2100 mass 471.09626954365029405380482785403728
  1 settings made for mass
set atom 2101 volume 0.52084563261172756032379993484938
  1 settings made for volume
set atom 2101 mass 468.76106935055480562368757091462612
  1 settings made for mass
set atom 2102 volume 0.52101269504746150484919553491636
  1 settings made for volume
set atom 2102 mass 468.91142554271533526843995787203312
  1 settings made for mass
set atom 2103 volume 0.52160508250165604771098060155055
  1 settings made for volume
set atom 2103 mass 469.44457425149045093348831869661808
  1 settings made for mass
set atom 2104 volume 0.52114535533239680908934587932890
  1 settings made for volume
set atom 2104 mass 469.03081979915714327944442629814148
  1 settings made for mass
set atom 2105 volume 0.52392287368359313770582730285241
  1 settings made for volume
set atom 2105 mass 471.53058631523384747197269462049007
  1 settings made for mass
set atom 2106 volume 0.52526875452799259846869972534478
  1 settings made for volume
set atom 2106 mass 472.74187907519331020012032240629196
  1 settings made for mass
set atom 2107 volume 0.52183599339585184928580474661430
  1 settings made for volume
set atom 2107 mass 469.65239405626664392912061884999275
  1 settings made for mass
set atom 2108 volume 0.52350426571186847723993196268566
  1 settings made for volume
set atom 2108 mass 471.15383914068161175237037241458893
  1 settings made for mass
set atom 2109 volume 0.52693595504743240276468441152247
  1 settings made for volume
set atom 2109 mass 474.24235954268914383646915666759014
  1 settings made for mass
set atom 2110 volume 0.52125685612338579222324597139959
  1 settings made for volume
set atom 2110 mass 469.13117051104723032040055841207504
  1 settings made for mass
set atom 2111 volume 0.52105825219922663471550094982376
  1 settings made for volume
set atom 2111 mass 468.95242697930399344841134734451771
  1 settings made for mass
set atom 2112 volume 0.52436655084121353009862787075690
  1 settings made for volume
set atom 2112 mass 471.92989575709219707277952693402767
  1 settings made for mass
set atom 2113 volume 0.52214039238560805422650901164161
  1 settings made for volume
set atom 2113 mass 469.92635314704722304668393917381763
  1 settings made for mass
set atom 2114 volume 0.52752324848618281638579219361418
  1 settings made for volume
set atom 2114 mass 474.77092363756452186862588860094547
  1 settings made for mass
set atom 2115 volume 0.52316776273958498499894176347880
  1 settings made for volume
set atom 2115 mass 470.85098646562647672908497042953968
  1 settings made for mass
set atom 2116 volume 0.52152200191516384641943204769632
  1 settings made for volume
set atom 2116 mass 469.36980172364746977109462022781372
  1 settings made for mass
set atom 2117 volume 0.52555210076006808606052800314501
  1 settings made for volume
set atom 2117 mass 472.99689068406127034904784522950649
  1 settings made for mass
set atom 2118 volume 0.52246552814713442813854271662422
  1 settings made for volume
set atom 2118 mass 470.21897533242099598282948136329651
  1 settings made for mass
set atom 2119 volume 0.52334915391009872998040464153746
  1 settings made for volume
set atom 2119 mass 471.01423851908884898875840008258820
  1 settings made for mass
set atom 2120 volume 0.52368363440619125626085406111088
  1 settings made for volume
set atom 2120 mass 471.31527096557215372740756720304489
  1 settings made for mass
set atom 2121 volume 0.52536258625545395606337706340128
  1 settings made for volume
set atom 2121 mass 472.82632762990857600016170181334019
  1 settings made for mass
set atom 2122 volume 0.52643435887328793310047103659599
  1 settings made for volume
set atom 2122 mass 473.79092298595912780001526698470116
  1 settings made for mass
set atom 2123 volume 0.52098245797682007918183444417082
  1 settings made for volume
set atom 2123 mass 468.88421217913804639465524815022945
  1 settings made for mass
set atom 2124 volume 0.53088728847572441704727452815860
  1 settings made for volume
set atom 2124 mass 477.79855962815196335213840939104557
  1 settings made for mass
set atom 2125 volume 0.52741638484323571933742869077832
  1 settings made for volume
set atom 2125 mass 474.67474635891215939409448765218258
  1 settings made for mass
set atom 2126 volume 0.52185742226775133634220082967659
  1 settings made for volume
set atom 2126 mass 469.67168004097618450032314285635948
  1 settings made for mass
set atom 2127 volume 0.52436228727628886314704459437053
  1 settings made for volume
set atom 2127 mass 471.92605854865996661828830838203430
  1 settings made for mass
set atom 2128 volume 0.52254837973758283542480285177589
  1 settings made for volume
set atom 2128 mass 470.29354176382457808358594775199890
  1 settings made for mass
set atom 2129 volume 0.52799500491839124194370924669784
  1 settings made for volume
set atom 2129 mass 475.19550442655213373654987663030624
  1 settings made for mass
set atom 2130 volume 0.52461810116128748671115999968606
  1 settings made for volume
set atom 2130 mass 472.15629104515875269498792476952076
  1 settings made for mass
set atom 2131 volume 0.52583525828398303136879121666425
  1 settings made for volume
set atom 2131 mass 473.25173245558471535332500934600830
  1 settings made for mass
set atom 2132 volume 0.52767769790830665321834658243461
  1 settings made for volume
set atom 2132 mass 474.90992811747599944283138029277325
  1 settings made for mass
set atom 2133 volume 0.52166250915156908707359662003000
  1 settings made for volume
set atom 2133 mass 469.49625823641218858028878457844257
  1 settings made for mass
set atom 2134 volume 0.52313186841978132068931017784053
  1 settings made for volume
set atom 2134 mass 470.81868157780320416350150480866432
  1 settings made for mass
set atom 2135 volume 0.52559970781576947906899022200378
  1 settings made for volume
set atom 2135 mass 473.03973703419251251034438610076904
  1 settings made for mass
set atom 2136 volume 0.52576115294268721545023481667158
  1 settings made for volume
set atom 2136 mass 473.18503764841847214484005235135555
  1 settings made for mass
set atom 2137 volume 0.52713051212018691149552296337788
  1 settings made for volume
set atom 2137 mass 474.41746090816820924374042078852654
  1 settings made for mass
set atom 2138 volume 0.52459950724524373466550741795800
  1 settings made for volume
set atom 2138 mass 472.13955652071933855040697380900383
  1 settings made for mass
set atom 2139 volume 0.52925496287297080222344902722398
  1 settings made for volume
set atom 2139 mass 476.32946658567374242920777760446072
  1 settings made for mass
set atom 2140 volume 0.51918549318119810997984586720122
  1 settings made for volume
set atom 2140 mass 467.26694386307832473903545178472996
  1 settings made for mass
set atom 2141 volume 0.52275411160875318028473657250288
  1 settings made for volume
set atom 2141 mass 470.47870044787788401663419790565968
  1 settings made for mass
set atom 2142 volume 0.52545195819601286935096595698269
  1 settings made for volume
set atom 2142 mass 472.90676237641156376412254758179188
  1 settings made for mass
set atom 2143 volume 0.52523851683327082984220623984584
  1 settings made for volume
set atom 2143 mass 472.71466514994375529568060301244259
  1 settings made for mass
set atom 2144 volume 0.52541501802191503678329809190473
  1 settings made for volume
set atom 2144 mass 472.87351621972351267686462961137295
  1 settings made for mass
set atom 2145 volume 0.52861556737884596302023965108674
  1 settings made for volume
set atom 2145 mass 475.75401064096138270542724058032036
  1 settings made for mass
set atom 2146 volume 0.52461932980323378039599901967449
  1 settings made for volume
set atom 2146 mass 472.15739682291041390271857380867004
  1 settings made for mass
set atom 2147 volume 0.51854586890880915994728184159612
  1 settings made for volume
set atom 2147 mass 466.69128201792824484073207713663578
  1 settings made for mass
set atom 2148 volume 0.52526141353807720424384797297535
  1 settings made for volume
set atom 2148 mass 472.73527218426949048080132342875004
  1 settings made for mass
set atom 2149 volume 0.52457471522052034895722272267449
  1 settings made for volume
set atom 2149 mass 472.11724369846831450558966025710106
  1 settings made for mass
set atom 2150 volume 0.52807686302597145466819483772269
  1 settings made for volume
set atom 2150 mass 475.26917672337430076368036679923534
  1 settings made for mass
set atom 2151 volume 0.52353748047177051105904865835328
  1 settings made for volume
set atom 2151 mass 471.18373242459347238764166831970215
  1 settings made for mass
set atom 2152 volume 0.52524248356067826382087559977663
  1 settings made for volume
set atom 2152 mass 472.71823520461043699469882994890213
  1 settings made for mass
set atom 2153 volume 0.52016537876139945506537287656101
  1 settings made for volume
set atom 2153 mass 468.14884088525951710835215635597706
  1 settings made for mass
set atom 2154 volume 0.52699460973205602964952731781523
  1 settings made for volume
set atom 2154 mass 474.29514875885041647052275948226452
  1 settings made for mass
set atom 2155 volume 0.51967111172335100910402161389356
  1 settings made for volume
set atom 2155 mass 467.70400055101589487094315700232983
  1 settings made for mass
set atom 2156 volume 0.52404613470435257305268805794185
  1 settings made for volume
set atom 2156 mass 471.64152123391733084645238704979420
  1 settings made for mass
set atom 2157 volume 0.52296205539558004993239137547789
  1 settings made for volume
set atom 2157 mass 470.66584985602202095833490602672100
  1 settings made for mass
set atom 2158 volume 0.52501272282029087801191735707107
  1 settings made for volume
set atom 2158 mass 472.51145053826178354938747361302376
  1 settings made for mass
set atom 2159 volume 0.51777427486265736877868448573281
  1 settings made for volume
set atom 2159 mass 465.99684737639165632572257891297340
  1 settings made for mass
set atom 2160 volume 0.52877711299985075132923384444439
  1 settings made for volume
set atom 2160 mass 475.89940169986567752857808955013752
  1 settings made for mass
set atom 2161 volume 0.52459972210616678811589963515871
  1 settings made for volume
set atom 2161 mass 472.13974989555009642572258599102497
  1 settings made for mass
set atom 2162 volume 0.52769407672637202999510463996558
  1 settings made for volume
set atom 2162 mass 474.92466905373481722563155926764011
  1 settings made for mass
set atom 2163 volume 0.52137635329007636642018042039126
  1 settings made for volume
set atom 2163 mass 469.23871796106874398901709355413914
  1 settings made for mass
set atom 2164 volume 0.52210639294805805121768571552821
  1 settings made for volume
set atom 2164 mass 469.89575365325225675405818037688732
  1 settings made for mass
set atom 2165 volume 0.52504921718582076017867166228825
  1 settings made for volume
set atom 2165 mass 472.54429546723866906177136115729809
  1 settings made for mass
set atom 2166 volume 0.52331103011284374471046021426446
  1 settings made for volume
set atom 2166 mass 470.97992710155938311800127848982811
  1 settings made for mass
set atom 2167 volume 0.52294304438601724172031026682816
  1 settings made for volume
set atom 2167 mass 470.64873994741549267928348854184151
  1 settings made for mass
set atom 2168 volume 0.52297947368262864831223168948782
  1 settings made for volume
set atom 2168 mass 470.68152631436578303691931068897247
  1 settings made for mass
set atom 2169 volume 0.52413901064940837670746986987069
  1 settings made for volume
set atom 2169 mass 471.72510958446753193129552528262138
  1 settings made for mass
set atom 2170 volume 0.52360389079771563203280493326019
  1 settings made for volume
set atom 2170 mass 471.24350171794407060588127933442593
  1 settings made for mass
set atom 2171 volume 0.51938830257164547710146962344879
  1 settings made for volume
set atom 2171 mass 467.44947231448094271399895660579205
  1 settings made for mass
set atom 2172 volume 0.52074524233427921249273140347213
  1 settings made for volume
set atom 2172 mass 468.67071810085127481215749867260456
  1 settings made for mass
set atom 2173 volume 0.52807686186966884545057610012009
  1 settings made for volume
set atom 2173 mass 475.26917568270198444224661216139793
  1 settings made for mass
set atom 2174 volume 0.52573530885227226505662656563800
  1 settings made for volume
set atom 2174 mass 473.16177796704505453817546367645264
  1 settings made for mass
set atom 2175 volume 0.52420617431233873517726351565216
  1 settings made for volume
set atom 2175 mass 471.78555688110486698860768228769302
  1 settings made for mass
set atom 2176 volume 0.52227550679570822200759039333207
  1 settings made for volume
set atom 2176 mass 470.04795611613741357359685935080051
  1 settings made for mass
set atom 2177 volume 0.52671022698735314726548040198395
  1 settings made for volume
set atom 2177 mass 474.03920428861783875618129968643188
  1 settings made for mass
set atom 2178 volume 0.52569426941039076872641544468934
  1 settings made for volume
set atom 2178 mass 473.12484246935167675474076531827450
  1 settings made for mass
set atom 2179 volume 0.52615454842763120790749553634669
  1 settings made for volume
set atom 2179 mass 473.53909358486811242983094416558743
  1 settings made for mass
set atom 2180 volume 0.52128311847427499792217986396281
  1 settings made for volume
set atom 2180 mass 469.15480662684751678170869126915932
  1 settings made for mass
set atom 2181 volume 0.52606609829590877946969840195379
  1 settings made for volume
set atom 2181 mass 473.45948846631790729588828980922699
  1 settings made for mass
set atom 2182 volume 0.52354272728771511502543489768868
  1 settings made for volume
set atom 2182 mass 471.18845455894359020021511241793633
  1 settings made for mass
set atom 2183 volume 0.52529928519341007042697810902609
  1 settings made for volume
set atom 2183 mass 472.76935667406905849929898977279663
  1 settings made for mass
set atom 2184 volume 0.51789284573918614729137743779575
  1 settings made for volume
set atom 2184 mass 466.10356116526753567086416296660900
  1 settings made for mass
set atom 2185 volume 0.52156584395492777694869346305495
  1 settings made for volume
set atom 2185 mass 469.40925955943498593114782124757767
  1 settings made for mass
set atom 2186 volume 0.52323134678352734017181546732900
  1 settings made for volume
set atom 2186 mass 470.90821210517458439426263794302940
  1 settings made for mass
set atom 2187 volume 0.52648710099747320079188739327947
  1 settings made for volume
set atom 2187 mass 473.83839089772590114080230705440044
  1 settings made for mass
set atom 2188 volume 0.51925300479126446084876533859642
  1 settings made for volume
set atom 2188 mass 467.32770431213799611214199103415012
  1 settings made for mass
set atom 2189 volume 0.53002432630805740298995942794136
  1 settings made for volume
set atom 2189 mass 477.02189367725168267497792840003967
  1 settings made for mass
set atom 2190 volume 0.52374375268297679308915348883602
  1 settings made for volume
set atom 2190 mass 471.36937741467909290804527699947357
  1 settings made for mass
set atom 2191 volume 0.52218001418803594582129790069303
  1 settings made for volume
set atom 2191 mass 469.96201276923233081106445752084255
  1 settings made for mass
set atom 2192 volume 0.52132076694569640107346231161500
  1 settings made for volume
set atom 2192 mass 469.18869025112678627920104190707207
  1 settings made for mass
set atom 2193 volume 0.52902344004473855765269263429218
  1 settings made for volume
set atom 2193 mass 476.12109604026471743054571561515331
  1 settings made for mass
set atom 2194 volume 0.52248999363760995073846515879268
  1 settings made for volume
set atom 2194 mass 470.24099427384896898729493841528893
  1 settings made for mass
set atom 2195 volume 0.52218754129091204951862437155796
  1 settings made for volume
set atom 2195 mass 469.96878716182084190222667530179024
  1 settings made for mass
set atom 2196 volume 0.52401750554760873068715909539605
  1 settings made for volume
set atom 2196 mass 471.61575499284788293152814731001854
  1 settings made for mass
set atom 2197 volume 0.52578635625560532496081123099430
  1 settings made for volume
set atom 2197 mass 473.20772063004477558934013359248638
  1 settings made for mass
set atom 2198 volume 0.51996278003310858473184907779796
  1 settings made for volume
set atom 2198 mass 467.96650202979770938327419571578503
  1 settings made for mass
set atom 2199 volume 0.52138402302487030226529896026477
  1 settings made for volume
set atom 2199 mass 469.24562072238325072248699143528938
  1 settings made for mass
set atom 2200 volume 0.51976455844529745320414804155007
  1 settings made for volume
set atom 2200 mass 467.78810260076772920001531019806862
  1 settings made for mass
set atom 2201 volume 0.52498346522815808601336584615638
  1 settings made for volume
set atom 2201 mass 472.48511870534230183693580329418182
  1 settings made for mass
set atom 2202 volume 0.52023162916052145821055319174775
  1 settings made for volume
set atom 2202 mass 468.20846624446932082719285972416401
  1 settings made for mass
set atom 2203 volume 0.52108980260566484243867080294876
  1 settings made for volume
set atom 2203 mass 468.98082234509837462610448710620403
  1 settings made for mass
set atom 2204 volume 0.52242063412698491742247597358073
  1 settings made for volume
set atom 2204 mass 470.17857071428642257160390727221966
  1 settings made for mass
set atom 2205 volume 0.51974403615401254530326013991726
  1 settings made for volume
set atom 2205 mass 467.76963253861129032884491607546806
  1 settings made for mass
set atom 2206 volume 0.52473228732621191028329121763818
  1 settings made for volume
set atom 2206 mass 472.25905859359073701853048987686634
  1 settings made for mass
set atom 2207 volume 0.52787891344555548656103383109439
  1 settings made for volume
set atom 2207 mass 475.09102210099996455028303898870945
  1 settings made for mass
set atom 2208 volume 0.51284185148923677743937332706992
  1 settings made for volume
set atom 2208 mass 461.55766634031311923536122776567936
  1 settings made for mass
set atom 2209 volume 0.52420534785497630014816650145804
  1 settings made for volume
set atom 2209 mass 471.78481306947867324197432026267052
  1 settings made for mass
set atom 2210 volume 0.52220081072485058371057675685734
  1 settings made for volume
set atom 2210 mass 469.98072965236553955037379637360573
  1 settings made for mass
set atom 2211 volume 0.52643809487129833435403725161450
  1 settings made for volume
set atom 2211 mass 473.79428538416851779402350075542927
  1 settings made for mass
set atom 2212 volume 0.52507006885842155696764166350476
  1 settings made for volume
set atom 2212 mass 472.56306197257941903444589115679264
  1 settings made for mass
set atom 2213 volume 0.51914892580012694800473127543228
  1 settings made for volume
set atom 2213 mass 467.23403322011427007964812219142914
  1 settings made for mass
set atom 2214 volume 0.52556435493764852573406187730143
  1 settings made for volume
set atom 2214 mass 473.00791944388367937790462747216225
  1 settings made for mass
set atom 2215 volume 0.52262633931076596383036303450353
  1 settings made for volume
set atom 2215 mass 470.36370537968934968375833705067635
  1 settings made for mass
set atom 2216 volume 0.51912644750719560970964039370301
  1 settings made for volume
set atom 2216 mass 467.21380275647607049904763698577881
  1 settings made for mass
set atom 2217 volume 0.52682361638918573376599852053914
  1 settings made for volume
set atom 2217 mass 474.14125475026713729675975628197193
  1 settings made for mass
set atom 2218 volume 0.52421556817558534469014830392553
  1 settings made for volume
set atom 2218 mass 471.79401135802680755659821443259716
  1 settings made for mass
set atom 2219 volume 0.52416922523319664506402659753803
  1 settings made for volume
set atom 2219 mass 471.75230270987697167583974078297615
  1 settings made for mass
set atom 2220 volume 0.52843800958577080706390916020609
  1 settings made for volume
set atom 2220 mass 475.59420862719372280480456538498402
  1 settings made for mass
set atom 2221 volume 0.52683928382578548710313270930783
  1 settings made for volume
set atom 2221 mass 474.15535544320692906694603152573109
  1 settings made for mass
set atom 2222 volume 0.52060162457682712666695579173393
  1 settings made for volume
set atom 2222 mass 468.54146211914439845713786780834198
  1 settings made for mass
set atom 2223 volume 0.52350591347972863509596663789125
  1 settings made for volume
set atom 2223 mass 471.15532213175578135633259080350399
  1 settings made for mass
set atom 2224 volume 0.52219865406747367764239697862649
  1 settings made for volume
set atom 2224 mass 469.97878866072630898997886106371880
  1 settings made for mass
set atom 2225 volume 0.52428944707769542521447192484629
  1 settings made for volume
set atom 2225 mass 471.86050236992588224893552251160145
  1 settings made for mass
set atom 2226 volume 0.53048191197770433458202887777588
  1 settings made for volume
set atom 2226 mass 477.43372077993387847527628764510155
  1 settings made for mass
set atom 2227 volume 0.52243571553821610553569598778267
  1 settings made for volume
set atom 2227 mass 470.19214398439447677446878515183926
  1 settings made for mass
set atom 2228 volume 0.52095595700199615052383705915418
  1 settings made for volume
set atom 2228 mass 468.86036130179655856409226544201374
  1 settings made for mass
set atom 2229 volume 0.52324354006586093479569399278262
  1 settings made for volume
set atom 2229 mass 470.91918605927486396467429585754871
  1 settings made for mass
set atom 2230 volume 0.51497493624562840075498115766095
  1 settings made for volume
set atom 2230 mass 463.47744262106556334401830099523067
  1 settings made for mass
set atom 2231 volume 0.52372242410880687213392548073898
  1 settings made for volume
set atom 2231 mass 471.35018169792618891733582131564617
  1 settings made for mass
set atom 2232 volume 0.52285575475342194184946720270091
  1 settings made for volume
set atom 2232 mass 470.57017927807976320764282718300819
  1 settings made for mass
set atom 2233 volume 0.52841721185604073607322561656474
  1 settings made for volume
set atom 2233 mass 475.57549067043663626463967375457287
  1 settings made for mass
set atom 2234 volume 0.52391081468268430043622174707707
  1 settings made for volume
set atom 2234 mass 471.51973321441585085267433896660805
  1 settings made for mass
set atom 2235 volume 0.52626628334903580164194636381580
  1 settings made for volume
set atom 2235 mass 473.63965501413224501447984948754311
  1 settings made for mass
set atom 2236 volume 0.52324993503565986330272608029190
  1 settings made for volume
set atom 2236 mass 470.92494153209389651237870566546917
  1 settings made for mass
set atom 2237 volume 0.52127730337876321264900525420671
  1 settings made for volume
set atom 2237 mass 469.14957304088687806142843328416348
  1 settings made for mass
set atom 2238 volume 0.52838751114167326061732410380500
  1 settings made for volume
set atom 2238 mass 475.54876002750592078882618807256222
  1 settings made for mass
set atom 2239 volume 0.52138605876432453367641528529930
  1 settings made for volume
set atom 2239 mass 469.24745288789205233115353621542454
  1 settings made for mass
set atom 2240 volume 0.51577856926863219211298883237760
  1 settings made for volume
set atom 2240 mass 464.20071234176896268763812258839607
  1 settings made for mass
set atom 2241 volume 0.52865253826886049459687910712091
  1 settings made for volume
set atom 2241 mass 475.78728444197446378893801011145115
  1 settings made for mass
set atom 2242 volume 0.52703041835835795492215538615710
  1 settings made for volume
set atom 2242 mass 474.32737652252217230852693319320679
  1 settings made for mass
set atom 2243 volume 0.52628745189072234644811487669358
  1 settings made for volume
set atom 2243 mass 473.65870670165008959884289652109146
  1 settings made for mass
set atom 2244 volume 0.52390860066679367790243304625619
  1 settings made for volume
set atom 2244 mass 471.51774060011433675754233263432980
  1 settings made for mass
set atom 2245 volume 0.52685687240669076825128058771952
  1 settings made for volume
set atom 2245 mass 474.17118516602170075202593579888344
  1 settings made for mass
set atom 2246 volume 0.52588597470507369990855295327492
  1 settings made for volume
set atom 2246 mass 473.29737723456634057583869434893131
  1 settings made for mass
set atom 2247 volume 0.52191774715324890099310550795053
  1 settings made for volume
set atom 2247 mass 469.72597243792398558070999570190907
  1 settings made for mass
set atom 2248 volume 0.52154265556338097464816883075400
  1 settings made for volume
set atom 2248 mass 469.38839000704285808751592412590981
  1 settings made for mass
set atom 2249 volume 0.52125534511073290389049361692742
  1 settings made for volume
set atom 2249 mass 469.12981059965960639601689763367176
  1 settings made for mass
set atom 2250 volume 0.52282887776254294287525681284023
  1 settings made for volume
set atom 2250 mass 470.54598998628864592319587245583534
  1 settings made for mass
set atom 2251 volume 0.52416460630325401037765686851344
  1 settings made for volume
set atom 2251 mass 471.74814567292861511305090971291065
  1 settings made for mass
set atom 2252 volume 0.52604003335103721727961101350957
  1 settings made for volume
set atom 2252 mass 473.43603001593351109477225691080093
  1 settings made for mass
set atom 2253 volume 0.52447820320162374940764493658207
  1 settings made for volume
set atom 2253 mass 472.03038288146137801959412172436714
  1 settings made for mass
set atom 2254 volume 0.52119969560047774148614507794264
  1 settings made for volume
set atom 2254 mass 469.07972604042998909790185280144215
  1 settings made for mass
set atom 2255 volume 0.51988389506665544370633824655670
  1 settings made for volume
set atom 2255 mass 467.89550555998988556893891654908657
  1 settings made for mass
set atom 2256 volume 0.52728837954540719312745977731538
  1 settings made for volume
set atom 2256 mass 474.55954159086650179233402013778687
  1 settings made for mass
set atom 2257 volume 0.52454851351843045925704700493952
  1 settings made for volume
set atom 2257 mass 472.09366216658742132494808174669743
  1 settings made for mass
set atom 2258 volume 0.52083299855761122643116323160939
  1 settings made for volume
set atom 2258 mass 468.74969870185009312990587204694748
  1 settings made for mass
set atom 2259 volume 0.52384614743149449100911851928686
  1 settings made for volume
set atom 2259 mass 471.46153268834501659512170590460300
  1 settings made for mass
set atom 2260 volume 0.52141866113730439558082707662834
  1 settings made for volume
set atom 2260 mass 469.27679502357398177991854026913643
  1 settings made for mass
set atom 2261 volume 0.52335859063531198209773265261902
  1 settings made for volume
set atom 2261 mass 471.02273157178080964513355866074562
  1 settings made for mass
set atom 2262 volume 0.52139864952484327176307488116436
  1 settings made for volume
set atom 2262 mass 469.25878457235893392862635664641857
  1 settings made for mass
set atom 2263 volume 0.52893810936304486158832105502370
  1 settings made for volume
set atom 2263 mass 476.04429842674039718986023217439651
  1 settings made for mass
set atom 2264 volume 0.52394358549818420556221099104732
  1 settings made for volume
set atom 2264 mass 471.54922694836579921684460714459419
  1 settings made for mass
set atom 2265 volume 0.52473952987330840791457831073785
  1 settings made for volume
set atom 2265 mass 472.26557688597756623494205996394157
  1 settings made for mass
set atom 2266 volume 0.52217926829992045156814128858969
  1 settings made for volume
set atom 2266 mass 469.96134146992841351675451733171940
  1 settings made for mass
set atom 2267 volume 0.52124454560605559816366394443321
  1 settings made for volume
set atom 2267 mass 469.12009104545001036967732943594456
  1 settings made for mass
set atom 2268 volume 0.52642070518679096036152031956590
  1 settings made for volume
set atom 2268 mass 473.77863466811186299310065805912018
  1 settings made for mass
set atom 2269 volume 0.52072567209549436295645818972844
  1 settings made for volume
set atom 2269 mass 468.65310488594491289404686540365219
  1 settings made for mass
set atom 2270 volume 0.51952423368793720914737832572428
  1 settings made for volume
set atom 2270 mass 467.57181031914348068312392570078373
  1 settings made for mass
set atom 2271 volume 0.52851376486615686545178505184595
  1 settings made for volume
set atom 2271 mass 475.66238837954119844653178006410599
  1 settings made for mass
set atom 2272 volume 0.52800009307617246090416074366658
  1 settings made for volume
set atom 2272 mass 475.20008376855520282333600334823132
  1 settings made for mass
set atom 2273 volume 0.52737309095736162323220241887611
  1 settings made for volume
set atom 2273 mass 474.63578186162544625403825193643570
  1 settings made for mass
set atom 2274 volume 0.52137639733663887486869725762517
  1 settings made for volume
set atom 2274 mass 469.23875760297499937223619781434536
  1 settings made for mass
set atom 2275 volume 0.52536454670021415225278360594530
  1 settings made for volume
set atom 2275 mass 472.82809203019274946200312115252018
  1 settings made for mass
set atom 2276 volume 0.52672750358429520911585086651030
  1 settings made for volume
set atom 2276 mass 474.05475322586568154292763210833073
  1 settings made for mass
set atom 2277 volume 0.52401063909453715616848512581782
  1 settings made for volume
set atom 2277 mass 471.60957518508342900531715713441372
  1 settings made for mass
set atom 2278 volume 0.52400785625974088954848184584989
  1 settings made for volume
set atom 2278 mass 471.60707063376679570865235291421413
  1 settings made for mass
set atom 2279 volume 0.52034352649414539193628570501460
  1 settings made for volume
set atom 2279 mass 468.30917384473087849983130581676960
  1 settings made for mass
set atom 2280 volume 0.52195981168086635904046488576569
  1 settings made for volume
set atom 2280 mass 469.76383051277974800541414879262447
  1 settings made for mass
set atom 2281 volume 0.51621913519331397157685614729417
  1 settings made for volume
set atom 2281 mass 464.59722167398257397508132271468639
  1 settings made for mass
set atom 2282 volume 0.52562010635904243827098980545998
  1 settings made for volume
set atom 2282 mass 473.05809572313819444389082491397858
  1 settings made for mass
set atom 2283 volume 0.52053195033258792268071601938573
  1 settings made for volume
set atom 2283 mass 468.47875529932912286312784999608994
  1 settings made for mass
set atom 2284 volume 0.52445783415365410107256138871890
  1 settings made for volume
set atom 2284 mass 472.01205073828867853080737404525280
  1 settings made for mass
set atom 2285 volume 0.52287065091807327643635971980984
  1 settings made for volume
set atom 2285 mass 470.58358582626595989495399408042431
  1 settings made for mass
set atom 2286 volume 0.52038773055413889423448381421622
  1 settings made for volume
set atom 2286 mass 468.34895749872498527111019939184189
  1 settings made for mass
set atom 2287 volume 0.52054628514449086118531795364106
  1 settings made for volume
set atom 2287 mass 468.49165663004180260031716898083687
  1 settings made for mass
set atom 2288 volume 0.52430697541034620989819359238027
  1 settings made for volume
set atom 2288 mass 471.87627786931159334926633164286613
  1 settings made for mass
set atom 2289 volume 0.52166384713496538605426167123369
  1 settings made for volume
set atom 2289 mass 469.49746242146886743284994736313820
  1 settings made for mass
set atom 2290 volume 0.52317563520483978400932301155990
  1 settings made for volume
set atom 2290 mass 470.85807168435582070742384530603886
  1 settings made for mass
set atom 2291 volume 0.52551734726229981653489176096627
  1 settings made for volume
set atom 2291 mass 472.96561253606984109865152277052402
  1 settings made for mass
set atom 2292 volume 0.52380176872490102901736008789157
  1 settings made for volume
set atom 2292 mass 471.42159185241092700380249880254269
  1 settings made for mass
set atom 2293 volume 0.51478215400891547126605019002454
  1 settings made for volume
set atom 2293 mass 463.30393860802394101483514532446861
  1 settings made for mass
set atom 2294 volume 0.52152015776647131506393861855031
  1 settings made for volume
set atom 2294 mass 469.36814198982420975880813784897327
  1 settings made for mass
set atom 2295 volume 0.53263027096560011663939349091379
  1 settings made for volume
set atom 2295 mass 479.36724386904012362720095552504063
  1 settings made for mass
set atom 2296 volume 0.52615214991721970250182494055480
  1 settings made for volume
set atom 2296 mass 473.53693492549774646249716170132160
  1 settings made for mass
set atom 2297 volume 0.52426849222347760015594531068928
  1 settings made for volume
set atom 2297 mass 471.84164300112985301893786527216434
  1 settings made for mass
set atom 2298 volume 0.52342488323492031287997860999894
  1 settings made for volume
set atom 2298 mass 471.08239491142830956960096955299377
  1 settings made for mass
set atom 2299 volume 0.52808585408716135489726184459869
  1 settings made for volume
set atom 2299 mass 475.27726867844523894746089354157448
  1 settings made for mass
set atom 2300 volume 0.52178280160446022239995045310934
  1 settings made for volume
set atom 2300 mass 469.60452144401421037400723434984684
  1 settings made for mass
set atom 2301 volume 0.52235134400711857871613119641552
  1 settings made for volume
set atom 2301 mass 470.11620960640669864005758427083492
  1 settings made for mass
set atom 2302 volume 0.52291460478147622215061574024730
  1 settings made for volume
set atom 2302 mass 470.62314430332861547867651097476482
  1 settings made for mass
set atom 2303 volume 0.52054373031958334205882010792266
  1 settings made for volume
set atom 2303 mass 468.48935728762501184974098578095436
  1 settings made for mass
set atom 2304 volume 0.52714805989960578092023979479563
  1 settings made for volume
set atom 2304 mass 474.43325390964520238412660546600819
  1 settings made for mass
set atom 2305 volume 0.52228569305465877281591247083270
  1 settings made for volume
set atom 2305 mass 470.05712374919289686658885329961777
  1 settings made for mass
set atom 2306 volume 0.52728640580567653906030045618536
  1 settings made for volume
set atom 2306 mass 474.55776522510888071337831206619740
  1 settings made for mass
set atom 2307 volume 0.52350908489886660568402021453949
  1 settings made for volume
set atom 2307 mass 471.15817640897995488558080978691578
  1 settings made for mass
set atom 2308 volume 0.51775301007316953949555227154633
  1 settings made for volume
set atom 2308 mass 465.97770906585259353960282169282436
  1 settings made for mass
set atom 2309 volume 0.52068089465271372162646912329365
  1 settings made for volume
set atom 2309 mass 468.61280518744234768746537156403065
  1 settings made for mass
set atom 2310 volume 0.52434059842015012797844519809587
  1 settings made for volume
set atom 2310 mass 471.90653857813509830521070398390293
  1 settings made for mass
set atom 2311 volume 0.52606965930537985531856293164310
  1 settings made for volume
set atom 2311 mass 473.46269337484187644804478622972965
  1 settings made for mass
set atom 2312 volume 0.52055013240939695950970644844347
  1 settings made for volume
set atom 2312 mass 468.49511916845727910185814835131168
  1 settings made for mass
set atom 2313 volume 0.52508626101640087924238287087064
  1 settings made for volume
set atom 2313 mass 472.57763491476077888364670798182487
  1 settings made for mass
set atom 2314 volume 0.52804014350521577547681317810202
  1 settings made for volume
set atom 2314 mass 475.23612915469419704095344059169292
  1 settings made for mass
set atom 2315 volume 0.53301776055242833241010202982579
  1 settings made for volume
set atom 2315 mass 479.71598449718550227771629579365253
  1 settings made for mass
set atom 2316 volume 0.52266218232796257670003114981228
  1 settings made for volume
set atom 2316 mass 470.39596409516633457315037958323956
  1 settings made for mass
set atom 2317 volume 0.52410935186239993033296968860668
  1 settings made for volume
set atom 2317 mass 471.69841667615992264472879469394684
  1 settings made for mass
set atom 2318 volume 0.51991197283693946218363635125570
  1 settings made for volume
set atom 2318 mass 467.92077555324550530713167972862720
  1 settings made for mass
set atom 2319 volume 0.52255534239940337748464571632212
  1 settings made for volume
set atom 2319 mass 470.29980815946305483521427959203720
  1 settings made for mass
set atom 2320 volume 0.52708928273049360235802396346116
  1 settings made for volume
set atom 2320 mass 474.38035445744424123404314741492271
  1 settings made for mass
set atom 2321 volume 0.51729376821952977039131837955210
  1 settings made for volume
set atom 2321 mass 465.56439139757679868125705979764462
  1 settings made for mass
set atom 2322 volume 0.52333028801770842264318162051495
  1 settings made for volume
set atom 2322 mass 470.99725921593756083893822506070137
  1 settings made for mass
set atom 2323 volume 0.52892052641421571923530109415879
  1 settings made for volume
set atom 2323 mass 476.02847377279414331496809609234333
  1 settings made for mass
set atom 2324 volume 0.52551552191905170907659794465872
  1 settings made for volume
set atom 2324 mass 472.96396972714654793890076689422131
  1 settings made for mass
set atom 2325 volume 0.52331243384364889426052513954346
  1 settings made for volume
set atom 2325 mass 470.98119045928399373224237933754921
  1 settings made for mass
set atom 2326 volume 0.53036805877834414246763117262162
  1 settings made for volume
set atom 2326 mass 477.33125290050975308986380696296692
  1 settings made for mass
set atom 2327 volume 0.52335985763873615894681279314682
  1 settings made for volume
set atom 2327 mass 471.02387187486255015755887143313885
  1 settings made for mass
set atom 2328 volume 0.52069534947970808058670399987022
  1 settings made for volume
set atom 2328 mass 468.62581453173726231398177333176136
  1 settings made for mass
set atom 2329 volume 0.52714227476525354898484465593356
  1 settings made for volume
set atom 2329 mass 474.42804728872818031959468498826027
  1 settings made for mass
set atom 2330 volume 0.51905228488797716668301518438966
  1 settings made for volume
set atom 2330 mass 467.14705639917946200512233190238476
  1 settings made for mass
set atom 2331 volume 0.52049459159669309027407280154875
  1 settings made for volume
set atom 2331 mass 468.44513243702380123067996464669704
  1 settings made for mass
set atom 2332 volume 0.52245460835064960747331497259438
  1 settings made for volume
set atom 2332 mass 470.20914751558461830427404493093491
  1 settings made for mass
set atom 2333 volume 0.52892811630612546203167312341975
  1 settings made for volume
set atom 2333 mass 476.03530467551291849304107017815113
  1 settings made for mass
set atom 2334 volume 0.52221352425392941754012099409010
  1 settings made for volume
set atom 2334 mass 469.99217182853647045703837648034096
  1 settings made for mass
set atom 2335 volume 0.52082859866248065738858485929086
  1 settings made for volume
set atom 2335 mass 468.74573879623261518645449541509151
  1 settings made for mass
set atom 2336 volume 0.52112316501066113794138345838292
  1 settings made for volume
set atom 2336 mass 469.01084850959500727185513824224472
  1 settings made for mass
set atom 2337 volume 0.52478594037909820357867829443421
  1 settings made for volume
set atom 2337 mass 472.30734634118840631344937719404697
  1 settings made for mass
set atom 2338 volume 0.52300834275277419127547773314291
  1 settings made for volume
set atom 2338 mass 470.70750847749678769105230458080769
  1 settings made for mass
set atom 2339 volume 0.52428206078075889617906568673789
  1 settings made for volume
set atom 2339 mass 471.85385470268300878160516731441021
  1 settings made for mass
set atom 2340 volume 0.51811635942618383676716575791943
  1 settings made for volume
set atom 2340 mass 466.30472348356545353453839197754860
  1 settings made for mass
set atom 2341 volume 0.52418239643930386595371828661882
  1 settings made for volume
set atom 2341 mass 471.76415679537348069061408750712872
  1 settings made for mass
set atom 2342 volume 0.52282444779362702291791720199399
  1 settings made for volume
set atom 2342 mass 470.54200301426430996798444539308548
  1 settings made for mass
set atom 2343 volume 0.52836004790881452297668374740169
  1 settings made for volume
set atom 2343 mass 475.52404311793304714228725060820580
  1 settings made for mass
set atom 2344 volume 0.52130644599984254927704796500620
  1 settings made for volume
set atom 2344 mass 469.17580139985830101068131625652313
  1 settings made for mass
set atom 2345 volume 0.52844199209410991358026876696385
  1 settings made for volume
set atom 2345 mass 475.59779288469894709123764187097549
  1 settings made for mass
set atom 2346 volume 0.52217914165553458438751022185897
  1 settings made for volume
set atom 2346 mass 469.96122748998112683693761937320232
  1 settings made for mass
set atom 2347 volume 0.52207592886364961870526713028084
  1 settings made for volume
set atom 2347 mass 469.86833597728463018938782624900341
  1 settings made for mass
set atom 2348 volume 0.52137979731641237446382319831173
  1 settings made for volume
set atom 2348 mass 469.24181758477112680338905192911625
  1 settings made for mass
set atom 2349 volume 0.52301774771977505018583087803563
  1 settings made for volume
set atom 2349 mass 470.71597294779752473914413712918758
  1 settings made for mass
set atom 2350 volume 0.52687308913300257007250593233039
  1 settings made for volume
set atom 2350 mass 474.18578021970233749016188085079193
  1 settings made for mass
set atom 2351 volume 0.52469436478898268116921599357738
  0 settings made for volume
set atom 2351 mass 472.22492831008440816731308586895466
  0 settings made for mass
set atom 2352 volume 0.52149218807703701106248672658694
  0 settings made for volume
set atom 2352 mass 469.34296926933330951214884407818317
  0 settings made for mass
set atom 2353 volume 0.52744009825081572540028673756751
  0 settings made for volume
set atom 2353 mass 474.69608842573416040977463126182556
  0 settings made for mass
set atom 2354 volume 0.52084143678034966473688882615534
  0 settings made for volume
set atom 2354 mass 468.75729310231469071368337608873844
  0 settings made for mass
set atom 2355 volume 0.52977237458010895121418570852256
  0 settings made for volume
set atom 2355 mass 476.79513712209808318220893852412701
  0 settings made for mass
set atom 2356 volume 0.52176478594211828099247441059561
  0 settings made for volume
set atom 2356 mass 469.58830734790643646192620508372784
  0 settings made for mass
set atom 2357 volume 0.52218930374729632948316293550306
  0 settings made for volume
set atom 2357 mass 469.97037337256671207796898670494556
  0 settings made for mass
set atom 2358 volume 0.52808860892098297146191043793806
  0 settings made for volume
set atom 2358 mass 475.27974802888468275341438129544258
  0 settings made for mass
set atom 2359 volume 0.52253134481447327530645452497993
  0 settings made for volume
set atom 2359 mass 470.27821033302592468317016027867794
  0 settings made for mass
set atom 2360 volume 0.52323764673836481442492640780983
  0 settings made for volume
set atom 2360 mass 470.91388206452830900161643512547016
  0 settings made for mass
set atom 2361 volume 0.52256447150412732582935859682038
  0 settings made for volume
set atom 2361 mass 470.30802435371458614099537953734398
  0 settings made for mass
set atom 2362 volume 0.52340696216681148467131379220518
  0 settings made for volume
set atom 2362 mass 471.06626595013034375369898043572903
  0 settings made for mass
set atom 2363 volume 0.52558027042398069994533216231503
  0 settings made for volume
set atom 2363 mass 473.02224338158265481979469768702984
  0 settings made for mass
set atom 2364 volume 0.51937482840776427739371001734980
  0 settings made for volume
set atom 2364 mass 467.43734556698785809203400276601315
  0 settings made for mass
set atom 2365 volume 0.51908944772482301655003311680048
  0 settings made for volume
set atom 2365 mass 467.18050295234070290462113916873932
  0 settings made for mass
set atom 2366 volume 0.51895319608063594785107852658257
  0 settings made for volume
set atom 2366 mass 467.05787647257233174968860112130642
  0 settings made for mass
set atom 2367 volume 0.52729663944956428611732235367526
  0 settings made for volume
set atom 2367 mass 474.56697550460785350878722965717316
  0 settings made for mass
set atom 2368 volume 0.52431062280347973114658088888973
  0 settings made for volume
set atom 2368 mass 471.87956052313177224277751520276070
  0 settings made for mass
set atom 2369 volume 0.52292704745685769651686314318795
  0 settings made for volume
set atom 2369 mass 470.63434271117193929967470467090607
  0 settings made for mass
set atom 2370 volume 0.52433355858111341252225656717201
  0 settings made for volume
set atom 2370 mass 471.90020272300205306237330660223961
  0 settings made for mass
set atom 2371 volume 0.51860541342722898949801901835599
  0 settings made for volume
set atom 2371 mass 466.74487208450608477505738846957684
  0 settings made for mass
set atom 2372 volume 0.52237458186087371014849622952170
  0 settings made for volume
set atom 2372 mass 470.13712367478632359052426181733608
  0 settings made for mass
set atom 2373 volume 0.51940390580408624110475557245081
  0 settings made for volume
set atom 2373 mass 467.46351522367763209331315010786057
  0 settings made for mass
set atom 2374 volume 0.52266606159662221120498770687846
  0 settings made for volume
set atom 2374 mass 470.39945543696001095668179914355278
  0 settings made for mass
set atom 2375 volume 0.52271214911954588799858356651384
  0 settings made for volume
set atom 2375 mass 470.44093420759128321151365526020527
  0 settings made for mass
set atom 2376 volume 0.52157999295851820154013012142968
  0 settings made for volume
set atom 2376 mass 469.42199366266640936373732984066010
  0 settings made for mass
set atom 2377 volume 0.52649416394587578160724206099985
  0 settings made for volume
set atom 2377 mass 473.84474755128820788740995340049267
  0 settings made for mass
set atom 2378 volume 0.52511253729902496178993942521629
  0 settings made for volume
set atom 2378 mass 472.60128356912247227228363044559956
  0 settings made for mass
set atom 2379 volume 0.52477984752486339647958857312915
  0 settings made for volume
set atom 2379 mass 472.30186277237703507125843316316605
  0 settings made for mass
set atom 2380 volume 0.52102781108974227652907984520425
  0 settings made for volume
set atom 2380 mass 468.92502998076804487936897203326225
  0 settings made for mass
set atom 2381 volume 0.52383077033577052361579262651503
  0 settings made for volume
set atom 2381 mass 471.44769330219344283250393345952034
  0 settings made for mass
set atom 2382 volume 0.52530396126837952675003862168523
  0 settings made for volume
set atom 2382 mass 472.77356514154155320284189656376839
  0 settings made for mass
set atom 2383 volume 0.52591428260104355896231709266431
  0 settings made for volume
set atom 2383 mass 473.32285434093921594467246904969215
  0 settings made for mass
set atom 2384 volume 0.52199546560838572251128653078922
  0 settings made for volume
set atom 2384 mass 469.79591904754715869785286486148834
  0 settings made for mass
set atom 2385 volume 0.52104462458853828543681174778612
  0 settings made for volume
set atom 2385 mass 468.94016212968443824138375930488110
  0 settings made for mass
set atom 2386 volume 0.52446474590976477347936679507256
  0 settings made for volume
set atom 2386 mass 472.01827131878832233269349671900272
  0 settings made for mass
set atom 2387 volume 0.52575398223197544744778042513644
  0 settings made for volume
set atom 2387 mass 473.17858400877787516947137191891670
  0 settings made for mass
set atom 2388 volume 0.52405466506551301453242786010378
  0 settings made for volume
set atom 2388 mass 471.64919855896170020059798844158649
  0 settings made for mass
set atom 2389 volume 0.52250095853300837500654552059132
  0 settings made for volume
set atom 2389 mass 470.25086267970755216083489358425140
  0 settings made for mass
set atom 2390 volume 0.52466507916967841662625460230629
  0 settings made for volume
set atom 2390 mass 472.19857125271056474957731552422047
  0 settings made for mass
set atom 2391 volume 0.52231792905636442725381130003370
  0 settings made for volume
set atom 2391 mass 470.08613615072800939742592163383961
  0 settings made for mass
set atom 2392 volume 0.52420516292237906430528937562485
  0 settings made for volume
set atom 2392 mass 471.78464663014113966710283420979977
  0 settings made for mass
set atom 2393 volume 0.52648372935754383927786648200708
  0 settings made for volume
set atom 2393 mass 473.83535642178947000502375885844231
  0 settings made for mass
set atom 2394 volume 0.52370271314550442820490161466296
  0 settings made for volume
set atom 2394 mass 471.33244183095399648664169944822788
  0 settings made for mass
set atom 2395 volume 0.52027129074541988984492490999401
  0 settings made for volume
set atom 2395 mass 468.24416167087792928214184939861298
  0 settings made for mass
set atom 2396 volume 0.52263546838026719854042312363163
  0 settings made for volume
set atom 2396 mass 470.37192154224050000266288407146931
  0 settings made for mass
set atom 2397 volume 0.52512707800090097087775120598963
  0 settings made for volume
set atom 2397 mass 472.61437020081086757272714748978615
  0 settings made for mass
set atom 2398 volume 0.52122418757271904432570863718865
  0 settings made for volume
set atom 2398 mass 469.10176881544714433402987197041512
  0 settings made for mass
set atom 2399 volume 0.52434066829833692047202475805534
  0 settings made for volume
set atom 2399 mass 471.90660146850325418199645355343819
  0 settings made for mass
set atom 2400 volume 0.52749454100064974149120189395035
  0 settings made for volume
set atom 2400 mass 474.74508690058479487561271525919437
  0 settings made for mass
variable diam equal 0.99253618234029916678196059365291

###############################################
# Computes and Property/atom variables
###############################################

variable    velocity atom sqrt(vx*vx+vy*vy+vz*vz)
variable    R        atom (3/4*mass/(${dens}*PI))^(1/3)
variable    R        atom (3/4*mass/(900*PI))^(1/3)
variable    vol      atom mass/${dens}
variable    vol      atom mass/900
variable    area     atom PI*(v_R)^2

###############################################
# Force Calculations - vertical
###############################################

# Buoyancy calculation (need displaced volume):
variable h     atom (z<-v_R)*(2*v_R+z)+(z>=v_R)*(v_R+z)
variable Vwed  atom 1/3*PI*v_h^2*(3*v_R-v_h)

variable V1    atom (z<-v_R)*(z>=-2*v_R)*(v_vol-v_Vwed)
variable V2    atom (z<0)*(z>=-v_R)*(v_Vwed)
variable V3    atom (z<-2*v_R)*v_vol

variable Vdisp atom v_V1+v_V2+v_V3

# Non-Contact Forces (not handled through pair style): Buoyancy, Gravity, Drag
variable Fb    atom ${waterDensity}*${gravity}*v_Vdisp
variable Fb    atom 1017*${gravity}*v_Vdisp
variable Fb    atom 1017*9.81*v_Vdisp
variable Fg    atom ${gravity}*mass
variable Fg    atom 9.81*mass
variable Fd    atom (z<v_R)*((vz<=0)-(vz>0))*(1/2*${Cdo}*${waterDensity}*v_area*vz^2)
variable Fd    atom (z<v_R)*((vz<=0)-(vz>0))*(1/2*10*${waterDensity}*v_area*vz^2)
variable Fd    atom (z<v_R)*((vz<=0)-(vz>0))*(1/2*10*1017*v_area*vz^2)
variable Fztot atom v_Fb-v_Fg+v_Fd

###############################################
# Force Calculations - horizontal
###############################################


#variable xc        equal 0.5*(${x1}-${x0})
#variable knumx     equal PI/${xc} # One COS peak in wind field
#variable rot       equal 0
#variable deltheta  equal 2*PI*${rot}
#variable angramp   atom  ramp(0,${deltheta})
#variable wper      atom  cos(${knumx}*(${xc}-x)+v_angramp)

#variable xbool     atom  v_wper*((x<${xc})+(x>=${xc})*(-1))
#variable ugx       atom  ${windmagx}*v_xbool
#variable ugy       atom  ${windmagy}*(-1)

variable windmagx  equal 10
variable windmagy  equal 0
variable xc        equal 0.5*(${x1}-${x0})
variable xc        equal 0.5*(50-${x0})
variable xc        equal 0.5*(50-0)
#variable ugx       atom  -x*${windmagx}/${xc}
variable xbool     atom  (x<${xc}*.9)-(x>=1.1*${xc})
variable xbool     atom  (x<25*.9)-(x>=1.1*${xc})
variable xbool     atom  (x<25*.9)-(x>=1.1*25)
variable ugx       atom  v_xbool*${windmagx}
variable ugx       atom  v_xbool*10
variable ugy       atom  ${windmagy}*(-1)
variable ugy       atom  0*(-1)
variable vmaga     atom  sqrt((v_ugx-vx)*(v_ugx-vx)+(v_ugy-vy)*(v_ugy-vy))
variable vmago     atom  sqrt((-vx)*(-vx)+(-vy)*(-vy))

variable	windfx   atom  ${airDensity}*${Cda}*v_vmaga*(v_ugx-vx)
variable	windfx   atom  1*${Cda}*v_vmaga*(v_ugx-vx)
variable	windfx   atom  1*10*v_vmaga*(v_ugx-vx)
variable	windfy   atom  ${airDensity}*${Cda}*v_vmaga*(v_ugy-vy)
variable	windfy   atom  1*${Cda}*v_vmaga*(v_ugy-vy)
variable	windfy   atom  1*10*v_vmaga*(v_ugy-vy)
variable	waterfx  atom  ${waterDensity}*${Cdo}*v_vmago*(-vx)
variable	waterfx  atom  1017*${Cdo}*v_vmago*(-vx)
variable	waterfx  atom  1017*10*v_vmago*(-vx)
variable	waterfy  atom  ${waterDensity}*${Cdo}*v_vmago*(-vy)
variable	waterfy  atom  1017*${Cdo}*v_vmago*(-vy)
variable	waterfy  atom  1017*10*v_vmago*(-vy)

variable	Fxtot    atom  (v_windfx+v_waterfx)*v_area
variable	Fytot    atom  (v_windfy+v_waterfy)*v_area

###############################################
# Fixes and pair styles
###############################################

comm_style    tiled
timestep      0.001

pair_style    peri/pmb
pair_coeff    * * ${c} ${hor} ${s00} ${alpha}
pair_coeff    * * 9000000 ${hor} ${s00} ${alpha}
pair_coeff    * * 9000000 1 ${s00} ${alpha}
pair_coeff    * * 9000000 1 1000000000 ${alpha}
pair_coeff    * * 9000000 1 1000000000 0.1

fix           1 all    nve
fix           2 all    addforce v_Fxtot v_Fytot v_Fztot

###############################################
# Run settings
###############################################

variable      dumpfreq equal 10
variable      logfreq equal 100

variable      skin equal ${diam}
variable      skin equal 0.992536182340299
neighbor      ${skin} bin
neighbor      0.992536182340299 bin

comm_modify	  vel yes cutoff ${diam}
comm_modify	  vel yes cutoff 0.992536182340299

thermo_style	custom step cpu atoms ke lx
thermo_modify	flush yes lost warn
thermo        ${logfreq}
thermo        100

run  0
Neighbor list info ...
  update every 1 steps, delay 10 steps, check yes
  max neighbors/atom: 2000, page size: 100000
  master list distance cutoff = 1.99254
  ghost atom cutoff = 1.99254
  binsize = 0.996268, bins = 51 51 41
  2 neighbor lists, perpetual/occasional/extra = 1 1 0
  (1) pair peri/pmb, perpetual
      attributes: half, newton on
      pair build: half/bin/atomonly/newton
      stencil: half/bin/3d/newton
      bin: standard
  (2) fix PERI_NEIGH, occasional
      attributes: full, newton on
      pair build: full/bin/atomonly
      stencil: full/bin/3d
      bin: standard
Peridynamic bonds:
  total # of bonds = 9106
  bonds/atom = 3.87489
Per MPI rank memory allocation (min/avg/max) = 6.796 | 6.796 | 6.796 Mbytes
Step CPU Atoms KinEng Lx 
       0            0     2350            0           50 
Loop time of 2.14577e-06 on 1 procs for 0 steps with 2350 atoms

46.6% CPU use with 1 MPI tasks x no OpenMP threads

MPI task timing breakdown:
Section |  min time  |  avg time  |  max time  |%varavg| %total
---------------------------------------------------------------
Pair    | 0          | 0          | 0          |   0.0 |  0.00
Neigh   | 0          | 0          | 0          |   0.0 |  0.00
Comm    | 0          | 0          | 0          |   0.0 |  0.00
Output  | 0          | 0          | 0          |   0.0 |  0.00
Modify  | 0          | 0          | 0          |   0.0 |  0.00
Other   |            | 2.146e-06  |            |       |100.00

Nlocal:    2350 ave 2350 max 2350 min
Histogram: 1 0 0 0 0 0 0 0 0 0
Nghost:    0 ave 0 max 0 min
Histogram: 1 0 0 0 0 0 0 0 0 0
Neighs:    8963 ave 8963 max 8963 min
Histogram: 1 0 0 0 0 0 0 0 0 0
FullNghs:  17926 ave 17926 max 17926 min
Histogram: 1 0 0 0 0 0 0 0 0 0

Total # of neighbors = 17926
Ave neighs/atom = 7.62809
Neighbor list builds = 0
Dangerous builds = 0

dump 1        all custom ${dumpfreq} ../data/DUMP/normal_rad.dump id type x y z v_R
dump 1        all custom 10 ../data/DUMP/normal_rad.dump id type x y z v_R

run	 50000
Neighbor list info ...
  update every 1 steps, delay 10 steps, check yes
  max neighbors/atom: 2000, page size: 100000
  master list distance cutoff = 1.99254
  ghost atom cutoff = 1.99254
  binsize = 0.996268, bins = 51 51 41
  1 neighbor lists, perpetual/occasional/extra = 1 0 0
  (1) pair peri/pmb, perpetual
      attributes: half, newton on
      pair build: half/bin/atomonly/newton
      stencil: half/bin/3d/newton
      bin: standard
Per MPI rank memory allocation (min/avg/max) = 7.644 | 7.644 | 7.644 Mbytes
Step CPU Atoms KinEng Lx 
       0            0     2350            0           50 
     100     0.771492     2350    347173.99           50 
     200    1.5153461     2350    608831.23           50 
     300    2.2477601     2350    671941.25           50 
     400     2.967968     2350    685435.69           50 
     500     3.694236     2350    688648.34           50 
     600    4.4304211     2350    443769.49           50 
     700    5.1720412     2350    283580.39           50 
     800    5.9121242     2350    203021.04           50 
     900     6.651546     2350    150356.84           50 
    1000    7.3958001     2350    113259.68           50 
    1100     8.133358     2350    86967.434           50 
    1200    8.8715281     2350    68841.586           50 
    1300    9.6363661     2350    57157.713           50 
    1400    10.374051     2350    50788.205           50 
    1500    11.111849     2350    49101.318           50 
    1600    11.847909     2350    51678.705           50 
    1700    12.588291     2350    56709.565           50 
    1800    13.329006     2350    61232.888           50 
    1900    14.070552     2350    62007.146           50 
    2000    14.811996     2350    60494.127           50 
    2100     15.55212     2350    57274.724           50 
    2200    16.294496     2350    53351.233           50 
    2300    17.037799     2350    49815.835           50 
    2400    17.781658     2350    47528.977           50 
    2500    18.524384     2350    46994.552           50 
    2600    19.267991     2350     48231.64           50 
    2700     20.01074     2350    50380.273           50 
    2800    20.750177     2350    52141.225           50 
    2900    21.495258     2350    52699.128           50 
    3000    22.238501     2350    52013.967           50 
    3100    22.977603     2350    50552.271           50 
    3200    23.719419     2350    48916.584           50 
    3300    24.456288     2350     47616.08           50 
    3400    25.197952     2350    46982.313           50 
    3500    25.938032     2350    47155.077           50 
    3600    26.677575     2350    48006.623           50 
    3700    27.432804     2350    49086.777           50 
    3800    28.177401     2350    49871.989           50 
    3900    28.921997     2350    50040.102           50 
    4000     29.65714     2350     49575.64           50 
    4100    30.410382     2350    48709.781           50 
    4200    31.152535     2350    47786.034           50 
    4300    31.892119     2350    47129.806           50 
    4400    32.627799     2350    46956.053           50 
    4500    33.365765     2350    47306.952           50 
    4600    34.113976     2350    47978.869           50 
    4700    34.854931     2350    48612.254           50 
    4800    35.604458     2350     48911.45           50 
    4900    36.355432     2350    48779.816           50 
    5000    37.095293     2350    48314.699           50 
    5100    37.841736     2350    146269.99           50 
    5200    38.593353     2350    83406.373           50 
    5300    39.337872     2350    58634.248           50 
    5400     40.14633     2350    57171.141           50 
    5500    40.882874     2350     41650.03           50 
    5600    41.626098     2350    46217.042           50 
    5700    42.365673     2350    44635.113           50 
    5800     43.10591     2350    45406.477           50 
    5900     43.84957     2350    45821.135           50 
    6000    44.594621     2350    45124.473           50 
    6100    45.341828     2350    44951.725           50 
    6200    46.083379     2350     44981.69           50 
    6300    46.822901     2350     45197.76           50 
    6400     47.56389     2350    45447.103           50 
    6500    48.312122     2350     45617.92           50 
    6600    49.064087     2350    45765.072           50 
    6700    49.818359     2350    45820.962           50 
    6800    50.558038     2350    45729.367           50 
    6900    51.303054     2350    45527.973           50 
    7000    52.046621     2350     45187.33           50 
    7100    52.786105     2350    44920.075           50 
    7200    53.542034     2350    44696.284           50 
    7300    54.286836     2350    44629.317           50 
    7400    55.028659     2350     44578.96           50 
    7500    55.780769     2350    44526.116           50 
    7600    56.519669     2350    44472.965           50 
    7700     57.26405     2350    44321.874           50 
    7800    58.001405     2350     44221.64           50 
    7900    58.738476     2350     43990.61           50 
    8000    59.485898     2350    43755.189           50 
    8100    60.235374     2350    43561.453           50 
    8200     60.97634     2350     43472.66           50 
    8300    61.727476     2350    43296.084           50 
    8400    62.467478     2350    43296.518           50 
    8500    63.211332     2350    43150.259           50 
    8600    63.954772     2350    43006.237           50 
    8700    64.695074     2350    42972.111           50 
    8800    65.437104     2350    42865.294           50 
    8900    66.191277     2350    42554.509           50 
    9000    66.933801     2350     42248.64           50 
    9100    67.676752     2350     42091.88           50 
    9200    68.414445     2350    42036.573           50 
    9300     69.16073     2350    41999.221           50 
    9400     69.96513     2350    41883.536           50 
    9500    70.718046     2350    41628.462           50 
    9600     71.46252     2350    41308.161           50 
    9700    72.209652     2350    41423.664           50 
    9800    72.948574     2350    41479.877           50 
    9900    73.688578     2350    41393.447           50 
   10000     74.43352     2350    41443.863           50 
   10100    75.180895     2350    41330.395           50 
   10200    75.923324     2350    41230.525           50 
   10300     76.66687     2350    41403.007           50 
   10400     77.41171     2350    41432.796           50 
   10500    78.153087     2350     41197.91           50 
   10600    78.895156     2350    41236.325           50 
   10700    79.636438     2347    40853.716           50 
   10800    80.384861     2347    40328.077           50 
   10900    81.133054     2347    39877.085           50 
   11000    81.889827     2347    39858.869           50 
   11100    82.637784     2347    39688.088           50 
   11200    83.386648     2347    39561.103           50 
   11300    84.131528     2347    39442.245           50 
   11400    84.876377     2347    39157.939           50 
   11500    85.619325     2347    39004.276           50 
   11600    86.360882     2347    38892.912           50 
   11700    87.105948     2347    38754.712           50 
   11800    87.853277     2345    38685.133           50 
   11900    88.592372     2345    38807.954           50 
   12000     89.33388     2345    39170.325           50 
   12100    90.087152     2345    39343.143           50 
   12200    90.840764     2345    39312.738           50 
   12300    91.585851     2345    38812.076           50 
   12400    92.328368     2345    38778.371           50 
   12500    93.068552     2345    38532.447           50 
   12600    93.814106     2345    38385.443           50 
   12700    94.558525     2343    38448.876           50 
   12800    95.303272     2343     38497.07           50 
   12900    96.047938     2343    38548.223           50 
   13000    96.795329     2343     38668.35           50 
   13100    97.536418     2343    38831.621           50 
   13200    98.276203     2343    38825.993           50 
   13300    99.014523     2343    38910.412           50 
   13400    99.795492     2343    38774.996           50 
   13500    100.53906     2343    38596.664           50 
   13600    101.28216     2343    38585.596           50 
   13700    102.02551     2343    38832.038           50 
   13800    102.76717     2343    38857.895           50 
   13900    103.50659     2343    38992.869           50 
   14000     104.2447     2343    39160.382           50 
   14100    104.99312     2343    39226.511           50 
   14200    105.73408     2343    39070.616           50 
   14300    106.48046     2343    39182.939           50 
   14400    107.22682     2343    39293.756           50 
   14500     107.9676     2341    39152.034           50 
   14600    108.70964     2341    39128.144           50 
   14700    109.44565     2341     38491.75           50 
   14800    110.18411     2341    38658.627           50 
   14900    110.92473     2341    38947.006           50 
   15000    111.67458     2341    39268.031           50 
   15100    112.41514     2341    39409.449           50 
   15200    113.16267     2341    39272.476           50 
   15300    113.90446     2341    39051.496           50 
   15400    114.64665     2341    39018.388           50 
   15500    115.38602     2341    39005.601           50 
   15600    116.12548     2341    38786.295           50 
   15700    116.86443     2341    38836.505           50 
   15800    117.60866     2341    38663.969           50 
   15900    118.35369     2341    38713.219           50 
   16000    119.09275     2341    38633.693           50 
   16100    119.83163     2341    38650.954           50 
   16200    120.57627     2341    38595.031           50 
   16300    121.31846     2341    38775.309           50 
   16400     122.0589     2341    38616.108           50 
   16500    122.80471     2341    38347.222           50 
   16600    123.54824     2341    38228.921           50 
   16700    124.28912     2341    37858.496           50 
   16800    125.02869     2341     37453.59           50 
   16900    125.77225     2341     37387.32           50 
   17000    126.51543     2341    37216.574           50 
   17100    127.25988     2341    37147.896           50 
   17200    128.00858     2340    37194.074           50 
   17300    128.75171     2340    37096.763           50 
   17400    129.50272     2340    36945.893           50 
   17500    130.25233     2340    37087.975           50 
   17600    131.00211     2340    37504.519           50 
   17700    131.74943     2340    37346.152           50 
   17800    132.49093     2340    37314.565           50 
   17900    133.23428     2340    37380.333           50 
   18000    133.98703     2340    37772.646           50 
   18100    134.73772     2340    38027.188           50 
   18200    135.47864     2340    37701.833           50 
   18300    136.22583     2340    37429.615           50 
   18400    136.96735     2340    37178.804           50 
   18500    137.70799     2340    37205.773           50 
   18600    138.45129     2340    37035.194           50 
   18700    139.21034     2340    36805.051           50 
   18800    139.95867     2340    36805.278           50 
   18900    140.70086     2340    36482.653           50 
   19000    141.44834     2340    36107.653           50 
   19100    142.19704     2339    35771.676           50 
   19200    142.94328     2339    35691.741           50 
   19300    143.68734     2339    35563.136           50 
   19400    144.43615     2339     35254.65           50 
   19500     145.1803     2339    35357.946           50 
   19600    145.92324     2339    35349.816           50 
   19700    146.66737     2339    35306.524           50 
   19800    147.40803     2339    35239.947           50 
   19900    148.15245     2339     35097.81           50 
   20000    148.89451     2339    35053.323           50 
   20100    149.64488     2339    35277.842           50 
   20200    150.39494     2339    35605.218           50 
   20300    151.13725     2339    35805.146           50 
   20400    151.87729     2339    35933.364           50 
   20500    152.62245     2339    35845.593           50 
   20600    153.36502     2339    35454.905           50 
   20700     154.1104     2339    35020.804           50 
   20800    154.85178     2339    34864.729           50 
   20900    155.59659     2339    34420.906           50 
   21000    156.34042     2339    34012.027           50 
   21100    157.07833     2339    33643.629           50 
   21200    157.81692     2339    33336.599           50 
   21300    158.56478     2339    33292.699           50 
   21400     159.3168     2339    33030.318           50 
   21500    160.07539     2339    32726.069           50 
   21600    160.81934     2339    32414.799           50 
   21700    161.56119     2339     32398.38           50 
   21800     162.3076     2339    32210.378           50 
   21900     163.0512     2339    31842.057           50 
   22000    163.80097     2339    31609.417           50 
   22100    164.54509     2338    31171.033           50 
   22200     165.2867     2338    30893.954           50 
   22300     166.0316     2338    30487.081           50 
   22400    166.77233     2338    30101.729           50 
   22500    167.51289     2338    30062.819           50 
   22600    168.25431     2338    30078.284           50 
   22700    168.99604     2338    29937.018           50 
   22800    169.74462     2338    29784.684           50 
   22900    170.48642     2338    29541.732           50 
   23000    171.22653     2338    29512.813           50 
   23100    171.98347     2338     29536.76           50 
   23200    172.72344     2338    29495.422           50 
   23300    173.47178     2337    29244.673           50 
   23400     174.2124     2337    29009.321           50 
   23500    174.96132     2337    28924.659           50 
   23600    175.70347     2337    28798.213           50 
   23700    176.45548     2337    28738.807           50 
   23800    177.20124     2337    28863.841           50 
   23900    177.94305     2337    28936.221           50 
   24000    178.69184     2337    28911.687           50 
   24100    179.43261     2337    28902.444           50 
   24200     180.1781     2337    28960.932           50 
   24300    180.92649     2337    28916.439           50 
   24400    181.67468     2337    28959.352           50 
   24500    182.41677     2337    29049.302           50 
   24600    183.15732     2337    29147.801           50 
   24700    183.90119     2337    29010.834           50 
   24800    184.64519     2337    28536.635           50 
   24900    185.39903     2337    28221.107           50 
   25000    186.14385     2337    27897.544           50 
   25100    186.88348     2337    27914.568           50 
   25200    187.62373     2337    27825.832           50 
   25300    188.36747     2337    27512.264           50 
   25400    189.11068     2337    28035.739           50 
   25500    189.86763     2337    28378.995           50 
   25600    190.61998     2337    28851.098           50 
   25700    191.36283     2337    29050.918           50 
   25800    192.11488     2337    28945.412           50 
   25900    192.85885     2337    29199.765           50 
   26000    193.59754     2337    29424.603           50 
   26100    194.34884     2337    29348.988           50 
   26200    195.09244     2337    29543.039           50 
   26300    195.84564     2337    29915.402           50 
   26400    196.58912     2337     30083.97           50 
   26500    197.33343     2337    30170.637           50 
   26600    198.08018     2337    30363.821           50 
   26700    198.82956     2337    30100.485           50 
   26800    199.56671     2337    29971.108           50 
   26900    200.31925     2337    29903.265           50 
   27000    201.07159     2337    29803.836           50 
   27100    201.82721     2337    29873.728           50 
   27200    202.57716     2337    30016.779           50 
   27300    203.31841     2337    30307.286           50 
   27400    204.06072     2337    30385.293           50 
   27500    204.80254     2337    30682.904           50 
   27600    205.54364     2337    31016.893           50 
   27700    206.29346     2337    31193.932           50 
   27800    207.04366     2337    31163.321           50 
   27900    207.79316     2337     31385.05           50 
   28000    208.53982     2337    31421.757           50 
   28100    209.28817     2337    31198.097           50 
   28200    210.02444     2337    31409.098           50 
   28300    210.77613     2337    31453.107           50 
   28400    211.51952     2337    31321.828           50 
   28500    212.26395     2337     31427.21           50 
   28600    213.01143     2337    31620.056           50 
   28700    213.76388     2337    31878.664           50 
   28800    214.50662     2337    31853.973           50 
   28900    215.26276     2337    32145.217           50 
   29000    216.00269     2337     32171.56           50 
   29100    216.74944     2337     32252.15           50 
   29200    217.49812     2337    31911.084           50 
   29300    218.24507     2337    31573.964           50 
   29400    218.98282     2337    31411.025           50 
   29500    219.74315     2337    31423.156           50 
   29600    220.49607     2337    31294.488           50 
   29700     221.2392     2337    31303.303           50 
   29800    221.98119     2336    31254.086           50 
   29900    222.72883     2336    31267.428           50 
   30000    223.48103     2336    31149.335           50 
   30100    224.22607     2336    30770.401           50 
   30200    224.96299     2336    30754.901           50 
   30300    225.70573     2336    30641.522           50 
   30400    226.45195     2336    30646.992           50 
   30500    227.19604     2336    30260.413           50 
   30600     227.9379     2336    29911.562           50 
   30700    228.68681     2336    29781.118           50 
   30800    229.43448     2336    29712.209           50 
   30900    230.18001     2336    29385.616           50 
   31000     230.9257     2336    29503.446           50 
   31100    231.67299     2336    29793.135           50 
   31200    232.41717     2336    29848.902           50 
   31300     233.1648     2336    29747.094           50 
   31400    233.91068     2336    29710.595           50 
   31500    234.65526     2336    29472.269           50 
   31600    235.40024     2336    29540.624           50 
   31700     236.1436     2336    29664.702           50 
   31800    236.89291     2335    30134.025           50 
   31900    237.63725     2335    30273.501           50 
   32000     238.3772     2335     30436.02           50 
   32100    239.11951     2335    30462.287           50 
   32200    239.86172     2335    30178.602           50 
   32300    240.61361     2335    30006.978           50 
   32400    241.36175     2335    29947.504           50 
   32500    242.10603     2335    29910.938           50 
   32600    242.84933     2335    29844.196           50 
   32700    243.60452     2335    29805.252           50 
   32800    244.35008     2335    29906.367           50 
   32900    245.09205     2335    29732.394           50 
   33000    245.84777     2335    29563.315           50 
   33100    246.59838     2335    28984.143           50 
   33200    247.34569     2335    28519.948           50 
   33300    248.09028     2335    27948.546           50 
   33400    248.83527     2335    27760.611           50 
   33500    249.59052     2335    27326.388           50 
   33600     250.3387     2335    26800.164           50 
   33700    251.08349     2335    26270.187           50 
   33800     251.8271     2335    25833.787           50 
   33900    252.57373     2335    25570.129           50 
   34000    253.31283     2335    25354.933           50 
   34100    254.05467     2335     25316.58           50 
   34200    254.79367     2335    24834.151           50 
   34300    255.54331     2335    24439.928           50 
   34400    256.29356     2335     23996.71           50 
   34500    257.03484     2335    23712.571           50 
   34600    257.78191     2335    23565.816           50 
   34700    258.52668     2335    23615.673           50 
   34800    259.26906     2335    23915.341           50 
   34900    260.03048     2335    24222.436           50 
   35000    260.77205     2335    24286.581           50 
   35100    261.51842     2335    24420.841           50 
   35200    262.26568     2335    24503.332           50 
   35300    263.02269     2335     24792.56           50 
   35400    263.77557     2335     24882.12           50 
   35500    264.51986     2335    24155.259           50 
   35600    265.27085     2335    23756.663           50 
   35700    266.01561     2335    23483.681           50 
   35800    266.76235     2335    23153.586           50 
   35900    267.51033     2335    23250.102           50 
   36000    268.25491     2335    22970.479           50 
   36100     268.9971     2335      22426.8           50 
   36200    269.73666     2335    21996.487           50 
   36300    270.49002     2335    21697.006           50 
   36400    271.24102     2335    21171.076           50 
   36500    271.98494     2335    20700.238           50 
   36600      272.732     2335    20658.332           50 
   36700    273.47525     2335    20891.137           50 
   36800    274.22194     2335    20741.204           50 
   36900    274.96232     2335    20623.769           50 
   37000    275.71405     2335    20665.106           50 
   37100    276.45886     2335    20647.959           50 
   37200    277.21124     2335    20871.018           50 
   37300    277.95585     2335    20828.755           50 
   37400    278.70107     2335    20562.785           50 
   37500    279.46354     2335    20513.763           50 
   37600    280.20853     2335    20487.601           50 
   37700    280.95895     2335    20562.677           50 
   37800    281.70421     2335    20871.953           50 
   37900    282.44718     2335     20864.67           50 
   38000    283.19526     2335    21009.394           50 
   38100    283.93694     2335    21082.381           50 
   38200    284.68485     2335    21374.574           50 
   38300     285.4284     2335    21623.719           50 
   38400    286.17553     2335    21349.487           50 
   38500     286.9211     2335    21307.539           50 
   38600    287.66725     2335    21307.721           50 
   38700    288.42199     2335    21360.389           50 
   38800    289.16666     2335    21229.647           50 
   38900    289.91778     2335      21240.8           50 
   39000    290.66567     2335    21166.841           50 
   39100    291.41277     2335    21023.995           50 
   39200    292.16615     2335    21390.953           50 
   39300     292.9136     2335    21583.892           50 
   39400    293.66299     2335    21872.317           50 
   39500    294.41196     2335    21996.223           50 
   39600     295.1552     2335    22229.204           50 
   39700     295.8984     2335    22192.376           50 
   39800    296.64386     2335    22210.455           50 
   39900    297.38515     2335    22284.092           50 
   40000    298.13838     2335    22971.846           50 
   40100    298.88602     2335    23310.039           50 
   40200    299.68583     2335    23315.252           50 
   40300    300.47798     2335    23475.955           50 
   40400    301.25451     2335    23651.686           50 
   40500    302.06175     2335    23803.882           50 
   40600    302.86096     2335    23925.925           50 
   40700    303.63126     2335    24004.241           50 
   40800    304.40476     2335    24098.898           50 
   40900    305.17845     2335    24318.264           50 
   41000    305.95022     2335    24466.428           50 
   41100    306.72153     2335    24827.813           50 
   41200    307.48965     2335    25311.308           50 
   41300    308.25689     2335    25758.426           50 
   41400    309.02688     2335    25910.168           50 
   41500    309.82009     2335    26515.124           50 
   41600    310.59339     2335    26475.468           50 
   41700    311.37456     2335    26482.661           50 
   41800    312.14345     2335     26441.97           50 
   41900    312.91692     2335    26633.036           50 
   42000    313.68428     2335    26877.812           50 
   42100    314.45349     2335    26916.672           50 
   42200    315.22367     2335    26892.642           50 
   42300    315.99301     2335    26530.939           50 
   42400    316.76609     2335    25868.636           50 
   42500     317.5371     2335    25718.376           50 
   42600    318.31028     2335    25736.857           50 
   42700    319.08343     2335    25670.794           50 
   42800    319.85435     2335    25488.514           50 
   42900    320.63552     2335    25300.957           50 
   43000    321.40615     2335    25452.476           50 
   43100    322.19396     2335    25417.444           50 
   43200    322.96825     2335     24903.42           50 
   43300    323.74906     2335    24608.201           50 
   43400    324.52229     2335     24247.24           50 
   43500    325.29509     2335     23999.98           50 
   43600    326.06531     2335    23410.687           50 
   43700    326.84581     2335    22978.638           50 
   43800    327.61962     2335    22812.002           50 
   43900    328.39022     2335    22853.238           50 
   44000    329.16898     2335    22484.166           50 
   44100    329.94083     2335    22323.783           50 
   44200    330.71945     2335    22450.119           50 
   44300    331.49236     2335    22234.163           50 
   44400    332.26114     2335    22010.736           50 
   44500    333.03154     2335    21813.036           50 
   44600     333.8108     2335    21695.216           50 
   44700    334.58185     2335    21270.434           50 
   44800    335.35167     2335    20998.328           50 
   44900    336.12053     2335    20962.746           50 
   45000    336.89667     2335    21193.301           50 
   45100    337.67255     2335    21406.232           50 
   45200    338.44689     2335     21134.23           50 
   45300    339.22654     2335    21012.105           50 
   45400    340.00671     2335    20933.941           50 
   45500    340.78604     2335    21040.305           50 
   45600    341.56027     2335    21175.819           50 
   45700    342.33287     2335    21148.484           50 
   45800     343.1075     2335    21226.131           50 
   45900    343.87628     2335    21214.093           50 
   46000    344.65085     2335    21083.037           50 
   46100    345.41741     2335    21000.311           50 
   46200    346.18611     2335    20839.069           50 
   46300    346.95635     2335    20997.001           50 
   46400    347.73083     2335    21286.326           50 
   46500    348.50029     2335    21268.792           50 
   46600    349.27807     2335    21340.714           50 
   46700    350.05457     2335    21339.374           50 
   46800    350.82579     2335    20845.168           50 
   46900    351.60398     2335    20888.753           50 
   47000    352.37226     2335    20557.701           50 
   47100    353.14118     2335    20479.774           50 
   47200    353.90948     2335    20685.234           50 
   47300    354.67839     2335    20957.118           50 
   47400    355.44853     2335    20722.903           50 
   47500    356.21687     2335    20512.368           50 
   47600    356.98838     2335    20240.699           50 
   47700    357.75944     2335     19792.58           50 
   47800    358.52845     2335    19674.406           50 
   47900    359.30507     2335    19516.339           50 
   48000    360.07732     2335    19106.763           50 
   48100    360.85576     2335     18953.87           50 
   48200    361.62853     2335    18852.043           50 
   48300    362.40119     2335    18867.884           50 
   48400    363.17387     2335    19013.837           50 
   48500    363.94569     2335     19068.19           50 
   48600    364.71726     2335    19176.651           50 
   48700    365.49084     2335    18817.116           50 
   48800    366.26435     2335    18548.398           50 
   48900    367.03388     2335    18394.149           50 
   49000     367.8011     2335    18071.889           50 
   49100    368.56852     2335    17573.679           50 
   49200    369.34444     2335    17243.743           50 
   49300    370.21145     2335    17189.718           50 
   49400    370.96611     2335    17042.956           50 
   49500    371.72108     2335    17180.125           50 
   49600    372.49468     2335    17381.025           50 
   49700    373.24945     2335    17714.477           50 
   49800    373.99868     2335    17838.752           50 
   49900    374.74441     2335     17639.25           50 
   50000    375.49942     2335    17506.935           50 
Loop time of 375.499 on 1 procs for 50000 steps with 2335 atoms

99.7% CPU use with 1 MPI tasks x no OpenMP threads

MPI task timing breakdown:
Section |  min time  |  avg time  |  max time  |%varavg| %total
---------------------------------------------------------------
Pair    | 18.142     | 18.142     | 18.142     |   0.0 |  4.83
Neigh   | 0.03492    | 0.03492    | 0.03492    |   0.0 |  0.01
Comm    | 0.034369   | 0.034369   | 0.034369   |   0.0 |  0.01
Output  | 13.757     | 13.757     | 13.757     |   0.0 |  3.66
Modify  | 343.11     | 343.11     | 343.11     |   0.0 | 91.37
Other   |            | 0.4217     |            |       |  0.11

Nlocal:    2335 ave 2335 max 2335 min
Histogram: 1 0 0 0 0 0 0 0 0 0
Nghost:    0 ave 0 max 0 min
Histogram: 1 0 0 0 0 0 0 0 0 0
Neighs:    18620 ave 18620 max 18620 min
Histogram: 1 0 0 0 0 0 0 0 0 0

Total # of neighbors = 18620
Ave neighs/atom = 7.9743
Neighbor list builds = 49
Dangerous builds = 0

Please see the log.cite file for references relevant to this simulation

Total wall time: 0:06:15
