atom_style  peri
units       si

###############################################
# Size, contact parameters
###############################################

#Elastic-Plastic Parameters: K G s00 alpha YieldStress
variable    K equal 1000 #Bulk Modulus
variable    G equal 1000 #Shear Modulus
variable    hor equal 100 #Horizon
variable    s00 equal 2000 #Bond Constant
variable    alpha equal 1e6 #Bond Constant
variable    Yield equal 1e6 #Yield Stress

#Lattice:
include     in.trial
variable diam equal 2.00000000000000000000000000000000
variable rad equal ${diam}*0.5
variable rad equal 2*0.5
#variable    diam equal 4
#variable    rad equal ${diam}*0.5
variable    vol equal 4/3*PI*${rad}^3
variable    vol equal 4/3*PI*1^3

variable    kn equal 1e6
variable    damp equal 0.0
variable    coeffFric equal .3
variable    kt equal 0.5*${kn}
variable    kt equal 0.5*1000000
variable    dens equal 900
variable    minmass equal PI*${rad}^3*${dens}*4/3
variable    minmass equal PI*1^3*${dens}*4/3
variable    minmass equal PI*1^3*900*4/3
variable    gravity equal 9.810

variable    omega equal 0.5*10^(-3)
variable    lambda equal 8.0*10^5

variable    waterDensity equal 1017.0
variable    CD equal 10

###############################################
# Geometry-related parameters
###############################################

variable    lx equal  50
variable    ly equal  ${lx}
variable    ly equal  50
variable    lz equal  ${lx}
variable    lz equal  50

###############################################
# Create box
###############################################

boundary    f f f
atom_modify	map array

variable    x0 equal -${lx}
variable    x0 equal -50
variable    x1 equal ${lx}
variable    x1 equal 50
variable    x2 equal -${lx}/4
variable    x2 equal -50/4
variable    x3 equal ${lx}/4
variable    x3 equal 50/4
variable    y0 equal -${ly}
variable    y0 equal -50
variable    y1 equal ${ly}
variable    y1 equal 50
variable    y2 equal -${ly}/4
variable    y2 equal -50/4
variable    y3 equal ${ly}/4
variable    y3 equal 50/4
variable    z0 equal -${lz}
variable    z0 equal -50
variable    z1 equal ${lz}
variable    z1 equal 50
variable    zeq equal 0.577461425395942*${rad}
variable    zeq equal 0.577461425395942*1
variable    z2 equal -${diam}/5-${zeq}
variable    z2 equal -2/5-${zeq}
variable    z2 equal -2/5-0.577461425395942
variable    z3 equal ${diam}/5-${zeq}
variable    z3 equal 2/5-${zeq}
variable    z3 equal 2/5-0.577461425395942

region      boxreg block ${x0} ${x1} ${y0} ${y1} ${z0} ${z1} units box
region      boxreg block -50 ${x1} ${y0} ${y1} ${z0} ${z1} units box
region      boxreg block -50 50 ${y0} ${y1} ${z0} ${z1} units box
region      boxreg block -50 50 -50 ${y1} ${z0} ${z1} units box
region      boxreg block -50 50 -50 50 ${z0} ${z1} units box
region      boxreg block -50 50 -50 50 -50 ${z1} units box
region      boxreg block -50 50 -50 50 -50 50 units box
create_box  1 boxreg
Created orthogonal box = (-50 -50 -50) to (50 50 50)
  1 by 1 by 1 MPI processor grid

lattice     sc ${rad}
lattice     sc 1
Lattice spacing in x,y,z = 1 1 1
region      element block ${x2} ${x1} ${y2} ${y3} ${z2} ${z3} units box
region      element block -12.5 ${x1} ${y2} ${y3} ${z2} ${z3} units box
region      element block -12.5 50 ${y2} ${y3} ${z2} ${z3} units box
region      element block -12.5 50 -12.5 ${y3} ${z2} ${z3} units box
region      element block -12.5 50 -12.5 12.5 ${z2} ${z3} units box
region      element block -12.5 50 -12.5 12.5 -0.977461425395942 ${z3} units box
region      element block -12.5 50 -12.5 12.5 -0.977461425395942 -0.177461425395942 units box

###############################################
# Create atoms
###############################################

include in.include.equilibrium
create_atoms  1 single 0 0 -1.97171895814152930981322242587339
Created 1 atoms
  Time spent = 4.60148e-05 secs
#create_atoms  1 single 0 0 -${zeq}
#create_atoms  1 region element
set group all volume   ${vol}
set group all volume   4.18879020478639
  1 settings made for volume
set group all density  ${dens}
set group all density  900
  1 settings made for density
set group all mass     ${minmass}
set group all mass     3769.91118430775
  1 settings made for mass

###############################################
# Computes and Property/atom variables
###############################################

variable    velocity atom sqrt(vx*vx+vy*vy+vz*vz)
variable    R        atom (3/4*mass/(${dens}*PI))^(1/3)
variable    R        atom (3/4*mass/(900*PI))^(1/3)

###############################################
# Force Calculations
###############################################

variable h     atom (z<-${rad})*(2*${rad}+z)+(z>=${rad})*(${rad}+z)
variable h     atom (z<-1)*(2*${rad}+z)+(z>=${rad})*(${rad}+z)
variable h     atom (z<-1)*(2*1+z)+(z>=${rad})*(${rad}+z)
variable h     atom (z<-1)*(2*1+z)+(z>=1)*(${rad}+z)
variable h     atom (z<-1)*(2*1+z)+(z>=1)*(1+z)
variable Vwed  atom 1/3*PI*v_h^2*(3*${rad}-v_h)
variable Vwed  atom 1/3*PI*v_h^2*(3*1-v_h)

variable V1    atom (z<-${rad})*(z>=-2*${rad})*(${vol}-v_Vwed)
variable V1    atom (z<-1)*(z>=-2*${rad})*(${vol}-v_Vwed)
variable V1    atom (z<-1)*(z>=-2*1)*(${vol}-v_Vwed)
variable V1    atom (z<-1)*(z>=-2*1)*(4.18879020478639-v_Vwed)
variable V2    atom (z<0)*(z>=-${rad})*(v_Vwed)
variable V2    atom (z<0)*(z>=-1)*(v_Vwed)
variable V3    atom (z<-2*${rad})*${vol}
variable V3    atom (z<-2*1)*${vol}
variable V3    atom (z<-2*1)*4.18879020478639

variable Vdisp atom v_V1+v_V2+v_V3

variable Bool  atom (vz>=0)-(vz<0)
variable Fb    atom ${waterDensity}*${gravity}*v_Vdisp
variable Fb    atom 1017*${gravity}*v_Vdisp
variable Fb    atom 1017*9.81*v_Vdisp
variable Fg    atom ${gravity}*mass
variable Fg    atom 9.81*mass
variable Fd    atom (z<${rad})*(0.5*${CD}*${waterDensity}*PI*v_R^2*vz^2)
variable Fd    atom (z<1)*(0.5*${CD}*${waterDensity}*PI*v_R^2*vz^2)
variable Fd    atom (z<1)*(0.5*10*${waterDensity}*PI*v_R^2*vz^2)
variable Fd    atom (z<1)*(0.5*10*1017*PI*v_R^2*vz^2)
variable Fztot atom v_Fb-v_Fg+(-(vz>=0)+(vz<0))*v_Fd

###############################################
# Fixes and pair styles
###############################################

comm_style    tiled
timestep      2e-4

pair_style    peri/eps
pair_coeff    * *      ${K} ${G} ${hor} ${s00} ${alpha} ${Yield}
pair_coeff    * *      1000 ${G} ${hor} ${s00} ${alpha} ${Yield}
pair_coeff    * *      1000 1000 ${hor} ${s00} ${alpha} ${Yield}
pair_coeff    * *      1000 1000 100 ${s00} ${alpha} ${Yield}
pair_coeff    * *      1000 1000 100 2000 ${alpha} ${Yield}
pair_coeff    * *      1000 1000 100 2000 1000000 ${Yield}
pair_coeff    * *      1000 1000 100 2000 1000000 1000000

fix           1 all    nve
fix           2 all    addforce 0 0 v_Fztot

###############################################
# Run settings
###############################################

variable      dumpfreq equal 10
variable      logfreq equal 100

variable      skin equal 0.3*${diam}
variable      skin equal 0.3*2
neighbor      ${skin} bin
neighbor      0.6 bin

comm_modify	  vel yes cutoff ${diam}
comm_modify	  vel yes cutoff 2

thermo_style	custom step cpu atoms ke lx
thermo_modify	flush yes lost warn
thermo        ${logfreq}
thermo        100

run 0
Neighbor list info ...
  update every 1 steps, delay 10 steps, check yes
  max neighbors/atom: 2000, page size: 100000
  master list distance cutoff = 100.6
  ghost atom cutoff = 100.6
  binsize = 50.3, bins = 2 2 2
  2 neighbor lists, perpetual/occasional/extra = 1 1 0
  (1) pair peri/eps, perpetual
      attributes: half, newton on
      pair build: half/bin/atomonly/newton
      stencil: half/bin/3d/newton
      bin: standard
  (2) fix PERI_NEIGH, occasional
      attributes: full, newton on
      pair build: full/bin/atomonly
      stencil: full/bin/3d
      bin: standard
Peridynamic bonds:
  total # of bonds = 0
  bonds/atom = 0
Per MPI rank memory allocation (min/avg/max) = 0.7741 | 0.7741 | 0.7741 Mbytes
Step CPU Atoms KinEng Lx 
       0            0        1            0          100 
Loop time of 1.90735e-06 on 1 procs for 0 steps with 1 atoms

52.4% CPU use with 1 MPI tasks x no OpenMP threads

MPI task timing breakdown:
Section |  min time  |  avg time  |  max time  |%varavg| %total
---------------------------------------------------------------
Pair    | 0          | 0          | 0          |   0.0 |  0.00
Neigh   | 0          | 0          | 0          |   0.0 |  0.00
Comm    | 0          | 0          | 0          |   0.0 |  0.00
Output  | 0          | 0          | 0          |   0.0 |  0.00
Modify  | 0          | 0          | 0          |   0.0 |  0.00
Other   |            | 1.907e-06  |            |       |100.00

Nlocal:    1 ave 1 max 1 min
Histogram: 1 0 0 0 0 0 0 0 0 0
Nghost:    0 ave 0 max 0 min
Histogram: 1 0 0 0 0 0 0 0 0 0
Neighs:    0 ave 0 max 0 min
Histogram: 1 0 0 0 0 0 0 0 0 0
FullNghs:  0 ave 0 max 0 min
Histogram: 1 0 0 0 0 0 0 0 0 0

Total # of neighbors = 0
Ave neighs/atom = 0
Neighbor list builds = 0
Dangerous builds = 0
#dump 1        all custom ${dumpfreq} ../data/DUMP/3D_peri.dump id type volume               mass x y z v_velocity

dump 2        all custom ${dumpfreq} ../data/DUMP/3D_peri.dump id type x y z v_R
dump 2        all custom 10 ../data/DUMP/3D_peri.dump id type x y z v_R

run		100000
Neighbor list info ...
  update every 1 steps, delay 10 steps, check yes
  max neighbors/atom: 2000, page size: 100000
  master list distance cutoff = 100.6
  ghost atom cutoff = 100.6
  binsize = 50.3, bins = 2 2 2
  1 neighbor lists, perpetual/occasional/extra = 1 0 0
  (1) pair peri/eps, perpetual
      attributes: half, newton on
      pair build: half/bin/atomonly/newton
      stencil: half/bin/3d/newton
      bin: standard
Per MPI rank memory allocation (min/avg/max) = 1.39 | 1.39 | 1.39 Mbytes
Step CPU Atoms KinEng Lx 
       0            0        1            0          100 
     100 0.0087628365        1            0          100 
     200  0.017081976        1            0          100 
     300  0.024768829        1            0          100 
     400  0.036058903        1            0          100 
     500  0.043848038        1            0          100 
     600   0.05257988        1            0          100 
     700  0.061866999        1            0          100 
     800  0.069540977        1            0          100 
     900  0.078835011        1            0          100 
    1000  0.087154865        1            0          100 
    1100  0.096223831        1            0          100 
    1200   0.10472298        1            0          100 
    1300   0.11249185        1            0          100 
    1400   0.11961389        1            0          100 
    1500    0.1282959        1            0          100 
    1600   0.13616705        1            0          100 
    1700   0.14391994        1            0          100 
    1800   0.15080786        1            0          100 
    1900   0.15775394        1            0          100 
    2000   0.16558695        1            0          100 
    2100     0.172683        1            0          100 
    2200   0.17996383        1            0          100 
    2300   0.18656898        1            0          100 
    2400   0.19454002        1            0          100 
    2500   0.20129085        1            0          100 
    2600   0.20836997        1            0          100 
    2700   0.21509004        1            0          100 
    2800   0.22242093        1            0          100 
    2900   0.22981095        1            0          100 
    3000   0.23653197        1            0          100 
    3100   0.24445605        1            0          100 
    3200     0.251477        1            0          100 
    3300   0.25895596        1            0          100 
    3400   0.26578188        1            0          100 
    3500    0.2728219        1            0          100 
    3600   0.27954602        1            0          100 
    3700   0.28675103        1            0          100 
    3800   0.29421902        1            0          100 
    3900   0.30068898        1            0          100 
    4000   0.30905104        1            0          100 
    4100   0.31602001        1            0          100 
    4200   0.32345986        1            0          100 
    4300   0.33026791        1            0          100 
    4400   0.33743405        1            0          100 
    4500   0.34472895        1            0          100 
    4600   0.35298705        1            0          100 
    4700   0.35997605        1            0          100 
    4800   0.36692595        1            0          100 
    4900   0.37494802        1            0          100 
    5000     0.382447        1            0          100 
    5100   0.39077687        1            0          100 
    5200   0.39868402        1            0          100 
    5300     0.406317        1            0          100 
    5400   0.41488504        1            0          100 
    5500   0.42319393        1            0          100 
    5600   0.43221402        1            0          100 
    5700    0.4399209        1            0          100 
    5800   0.45221996        1            0          100 
    5900   0.46158695        1            0          100 
    6000   0.46908092        1            0          100 
    6100   0.47711301        1            0          100 
    6200   0.48557091        1            0          100 
    6300   0.49517488        1            0          100 
    6400   0.50384498        1            0          100 
    6500   0.51209784        1            0          100 
    6600   0.51952505        1            0          100 
    6700   0.52753901        1            0          100 
    6800   0.53488088        1            0          100 
    6900   0.54519391        1            0          100 
    7000   0.55232191        1            0          100 
    7100   0.56005096        1            0          100 
    7200   0.56843805        1            0          100 
    7300   0.57630587        1            0          100 
    7400   0.58393192        1            0          100 
    7500       0.5934        1            0          100 
    7600     0.601372        1            0          100 
    7700    0.6102879        1            0          100 
    7800    0.6171689        1            0          100 
    7900   0.62608004        1            0          100 
    8000   0.63326502        1            0          100 
    8100    0.6411469        1            0          100 
    8200   0.64848089        1            0          100 
    8300   0.65706086        1            0          100 
    8400   0.66508985        1            0          100 
    8500   0.67423701        1            0          100 
    8600   0.68229795        1            0          100 
    8700     0.689991        1            0          100 
    8800   0.69859099        1            0          100 
    8900     0.706599        1            0          100 
    9000   0.71514583        1            0          100 
    9100    0.7233479        1            0          100 
    9200   0.73193598        1            0          100 
    9300   0.74001884        1            0          100 
    9400   0.74821901        1            0          100 
    9500   0.75608492        1            0          100 
    9600    0.7635119        1            0          100 
    9700   0.77226591        1            0          100 
    9800   0.78165889        1            0          100 
    9900   0.78972983        1            0          100 
   10000   0.79771399        1            0          100 
   10100   0.80620503        1            0          100 
   10200   0.81414986        1            0          100 
   10300   0.82262588        1            0          100 
   10400   0.83047605        1            0          100 
   10500   0.83832097        1            0          100 
   10600   0.84671783        1            0          100 
   10700   0.85567784        1            0          100 
   10800    0.8644619        1            0          100 
   10900   0.87328887        1            0          100 
   11000   0.88148403        1            0          100 
   11100   0.89049602        1            0          100 
   11200     0.898597        1            0          100 
   11300   0.90742898        1            0          100 
   11400   0.91490602        1            0          100 
   11500   0.92302895        1            0          100 
   11600   0.93203998        1            0          100 
   11700      0.93961        1            0          100 
   11800   0.94663286        1            0          100 
   11900   0.95418906        1            0          100 
   12000     0.962147        1            0          100 
   12100   0.96939993        1            0          100 
   12200   0.97701502        1            0          100 
   12300   0.98428202        1            0          100 
   12400   0.99238896        1            0          100 
   12500   0.99932694        1            0          100 
   12600    1.0069981        1            0          100 
   12700     1.014153        1            0          100 
   12800    1.0215058        1            0          100 
   12900     1.028841        1            0          100 
   13000    1.0363739        1            0          100 
   13100     1.045594        1            0          100 
   13200     1.052927        1            0          100 
   13300    1.0605969        1            0          100 
   13400    1.0681739        1            0          100 
   13500       1.0757        1            0          100 
   13600    1.0834758        1            0          100 
   13700      1.09202        1            0          100 
   13800     1.099613        1            0          100 
   13900    1.1067998        1            0          100 
   14000     1.114574        1            0          100 
   14100    1.1225538        1            0          100 
   14200    1.1303389        1            0          100 
   14300    1.1408498        1            0          100 
   14400    1.1490829        1            0          100 
   14500      1.15711        1            0          100 
   14600    1.1655009        1            0          100 
   14700     1.172972        1            0          100 
   14800     1.180516        1            0          100 
   14900    1.1881359        1            0          100 
   15000    1.1961579        1            0          100 
   15100    1.2041879        1            0          100 
   15200     1.212245        1            0          100 
   15300     1.219419        1            0          100 
   15400    1.2277839        1            0          100 
   15500    1.2356169        1            0          100 
   15600    1.2448039        1            0          100 
   15700    1.2518489        1            0          100 
   15800     1.260006        1            0          100 
   15900     1.267267        1            0          100 
   16000    1.2757359        1            0          100 
   16100    1.2833159        1            0          100 
   16200    1.2915769        1            0          100 
   16300    1.2994649        1            0          100 
   16400    1.3077819        1            0          100 
   16500     1.315016        1            0          100 
   16600     1.323082        1            0          100 
   16700     1.329963        1            0          100 
   16800    1.3375781        1            0          100 
   16900    1.3455899        1            0          100 
   17000    1.3531199        1            0          100 
   17100     1.361413        1            0          100 
   17200    1.3686709        1            0          100 
   17300    1.3770978        1            0          100 
   17400      1.38448        1            0          100 
   17500     1.393508        1            0          100 
   17600     1.400846        1            0          100 
   17700    1.4092529        1            0          100 
   17800    1.4163671        1            0          100 
   17900    1.4244959        1            0          100 
   18000    1.4325459        1            0          100 
   18100     1.441124        1            0          100 
   18200    1.4487259        1            0          100 
   18300     1.456975        1            0          100 
   18400     1.465152        1            0          100 
   18500    1.4727299        1            0          100 
   18600     1.480221        1            0          100 
   18700    1.4873641        1            0          100 
   18800    1.4954009        1            0          100 
   18900     1.502708        1            0          100 
   19000    1.5115271        1            0          100 
   19100    1.5195169        1            0          100 
   19200     1.527596        1            0          100 
   19300    1.5346019        1            0          100 
   19400    1.5459759        1            0          100 
   19500    1.5564079        1            0          100 
   19600    1.5645409        1            0          100 
   19700     1.571851        1            0          100 
   19800    1.5809128        1            0          100 
   19900    1.5889549        1            0          100 
   20000     1.597362        1            0          100 
   20100    1.6054389        1            0          100 
   20200     1.613703        1            0          100 
   20300     1.621645        1            0          100 
   20400    1.6300418        1            0          100 
   20500    1.6373999        1            0          100 
   20600     1.647058        1            0          100 
   20700     1.656688        1            0          100 
   20800    1.6654959        1            0          100 
   20900    1.6736739        1            0          100 
   21000     1.682152        1            0          100 
   21100     1.689918        1            0          100 
   21200    1.6975238        1            0          100 
   21300    1.7050738        1            0          100 
   21400    1.7128611        1            0          100 
   21500    1.7205019        1            0          100 
   21600    1.7285089        1            0          100 
   21700    1.7357841        1            0          100 
   21800    1.7439599        1            0          100 
   21900    1.7514319        1            0          100 
   22000     1.760108        1            0          100 
   22100     1.767729        1            0          100 
   22200    1.7758279        1            0          100 
   22300     1.783174        1            0          100 
   22400     1.790633        1            0          100 
   22500    1.7994249        1            0          100 
   22600     1.807261        1            0          100 
   22700    1.8157179        1            0          100 
   22800    1.8231308        1            0          100 
   22900     1.831053        1            0          100 
   23000     1.838516        1            0          100 
   23100     1.845974        1            0          100 
   23200    1.8539848        1            0          100 
   23300     1.862555        1            0          100 
   23400     1.869977        1            0          100 
   23500    1.8783689        1            0          100 
   23600    1.8857989        1            0          100 
   23700     1.894114        1            0          100 
   23800     1.901824        1            0          100 
   23900      1.90978        1            0          100 
   24000    1.9172719        1            0          100 
   24100     1.924824        1            0          100 
   24200    1.9322109        1            0          100 
   24300    1.9399099        1            0          100 
   24400    1.9484599        1            0          100 
   24500     1.955744        1            0          100 
   24600    1.9636691        1            0          100 
   24700    1.9707839        1            0          100 
   24800     1.979054        1            0          100 
   24900     1.986697        1            0          100 
   25000     1.995162        1            0          100 
   25100     2.002368        1            0          100 
   25200    2.0104048        1            0          100 
   25300    2.0178308        1            0          100 
   25400    2.0258079        1            0          100 
   25500    2.0332739        1            0          100 
   25600     2.041714        1            0          100 
   25700     2.049443        1            0          100 
   25800    2.0573061        1            0          100 
   25900     2.064748        1            0          100 
   26000    2.0720639        1            0          100 
   26100     2.080754        1            0          100 
   26200    2.0884509        1            0          100 
   26300    2.0967848        1            0          100 
   26400     2.104383        1            0          100 
   26500    2.1125278        1            0          100 
   26600    2.1200299        1            0          100 
   26700    2.1280479        1            0          100 
   26800     2.135993        1            0          100 
   26900    2.1448469        1            0          100 
   27000     2.153115        1            0          100 
   27100     2.161792        1            0          100 
   27200     2.169493        1            0          100 
   27300    2.1776791        1            0          100 
   27400    2.1856389        1            0          100 
   27500    2.1945319        1            0          100 
   27600    2.2022231        1            0          100 
   27700      2.21068        1            0          100 
   27800     2.218524        1            0          100 
   27900    2.2272298        1            0          100 
   28000    2.2349789        1            0          100 
   28100     2.243619        1            0          100 
   28200    2.2516789        1            0          100 
   28300    2.2596478        1            0          100 
   28400    2.2676389        1            0          100 
   28500    2.2755439        1            0          100 
   28600    2.2836668        1            0          100 
   28700     2.292973        1            0          100 
   28800    2.3007588        1            0          100 
   28900     2.308708        1            0          100 
   29000     2.316416        1            0          100 
   29100    2.3242049        1            0          100 
   29200    2.3319609        1            0          100 
   29300     2.340004        1            0          100 
   29400    2.3476369        1            0          100 
   29500    2.3557599        1            0          100 
   29600     2.364311        1            0          100 
   29700    2.3723478        1            0          100 
   29800     2.381088        1            0          100 
   29900     2.388654        1            0          100 
   30000    2.3969479        1            0          100 
   30100     2.404943        1            0          100 
   30200    2.4138539        1            0          100 
   30300    2.4220119        1            0          100 
   30400    2.4308019        1            0          100 
   30500    2.4390719        1            0          100 
   30600    2.4470758        1            0          100 
   30700    2.4544671        1            0          100 
   30800     2.462667        1            0          100 
   30900    2.4708309        1            0          100 
   31000    2.4793379        1            0          100 
   31100    2.4871659        1            0          100 
   31200     2.495173        1            0          100 
   31300    2.5030448        1            0          100 
   31400      2.51087        1            0          100 
   31500    2.5186629        1            0          100 
   31600     2.526952        1            0          100 
   31700    2.5346949        1            0          100 
   31800    2.5439661        1            0          100 
   31900     2.551415        1            0          100 
   32000    2.5600939        1            0          100 
   32100    2.5680239        1            0          100 
   32200    2.5766978        1            0          100 
   32300    2.5843439        1            0          100 
   32400     2.592257        1            0          100 
   32500     2.599973        1            0          100 
   32600     2.608217        1            0          100 
   32700     2.616075        1            0          100 
   32800    2.6247408        1            0          100 
   32900    2.6324649        1            0          100 
   33000    2.6405849        1            0          100 
   33100     2.648648        1            0          100 
   33200    2.6565769        1            0          100 
   33300    2.6649499        1            0          100 
   33400    2.6724999        1            0          100 
   33500    2.6806068        1            0          100 
   33600    2.6888809        1            0          100 
   33700    2.6974809        1            0          100 
   33800    2.7048399        1            0          100 
   33900    2.7131939        1            0          100 
   34000    2.7211089        1            0          100 
   34100    2.7301779        1            0          100 
   34200    2.7378199        1            0          100 
   34300     2.745482        1            0          100 
   34400    2.7529399        1            0          100 
   34500    2.7615628        1            0          100 
   34600    2.7699039        1            0          100 
   34700    2.7789829        1            0          100 
   34800     2.786448        1            0          100 
   34900      2.79513        1            0          100 
   35000    2.8024969        1            0          100 
   35100    2.8105359        1            0          100 
   35200    2.8179638        1            0          100 
   35300    2.8261139        1            0          100 
   35400     2.834054        1            0          100 
   35500     2.842376        1            0          100 
   35600    2.8501449        1            0          100 
   35700     2.858747        1            0          100 
   35800    2.8667309        1            0          100 
   35900     2.875133        1            0          100 
   36000     2.882714        1            0          100 
   36100     2.890615        1            0          100 
   36200    2.8983428        1            0          100 
   36300     2.906347        1            0          100 
   36400     2.913893        1            0          100 
   36500    2.9217539        1            0          100 
   36600    2.9294019        1            0          100 
   36700    2.9373569        1            0          100 
   36800     2.945502        1            0          100 
   36900    2.9535561        1            0          100 
   37000    2.9616919        1            0          100 
   37100    2.9703369        1            0          100 
   37200    2.9788198        1            0          100 
   37300     2.986793        1            0          100 
   37400     2.995204        1            0          100 
   37500    3.0034909        1            0          100 
   37600    3.0121911        1            0          100 
   37700     3.023989        1            0          100 
   37800    3.0328739        1            0          100 
   37900    3.0410569        1            0          100 
   38000     3.049232        1            0          100 
   38100    3.0570331        1            0          100 
   38200     3.065485        1            0          100 
   38300    3.0731061        1            0          100 
   38400    3.0815458        1            0          100 
   38500    3.0894098        1            0          100 
   38600    3.0975969        1            0          100 
   38700     3.105494        1            0          100 
   38800     3.113781        1            0          100 
   38900     3.121784        1            0          100 
   39000    3.1304209        1            0          100 
   39100    3.1384299        1            0          100 
   39200     3.146987        1            0          100 
   39300    3.1554489        1            0          100 
   39400    3.1641939        1            0          100 
   39500    3.1721509        1            0          100 
   39600    3.1805658        1            0          100 
   39700     3.188668        1            0          100 
   39800    3.1973259        1            0          100 
   39900     3.205261        1            0          100 
   40000    3.2145488        1            0          100 
   40100    3.2231579        1            0          100 
   40200     3.232419        1            0          100 
   40300     3.240927        1            0          100 
   40400    3.2499249        1            0          100 
   40500    3.2584119        1            0          100 
   40600    3.2667499        1            0          100 
   40700     3.275023        1            0          100 
   40800    3.2834399        1            0          100 
   40900    3.2926359        1            0          100 
   41000    3.3012838        1            0          100 
   41100     3.309505        1            0          100 
   41200    3.3179278        1            0          100 
   41300     3.327143        1            0          100 
   41400    3.3354309        1            0          100 
   41500    3.3444169        1            0          100 
   41600     3.352478        1            0          100 
   41700     3.360985        1            0          100 
   41800    3.3692989        1            0          100 
   41900     3.378983        1            0          100 
   42000    3.3873029        1            0          100 
   42100      3.39591        1            0          100 
   42200    3.4041889        1            0          100 
   42300    3.4128211        1            0          100 
   42400     3.420994        1            0          100 
   42500    3.4299259        1            0          100 
   42600    3.4380469        1            0          100 
   42700    3.4469519        1            0          100 
   42800    3.4554839        1            0          100 
   42900    3.4638479        1            0          100 
   43000    3.4733429        1            0          100 
   43100    3.4827659        1            0          100 
   43200     3.492528        1            0          100 
   43300     3.501251        1            0          100 
   43400    3.5101049        1            0          100 
   43500    3.5186749        1            0          100 
   43600    3.5271299        1            0          100 
   43700    3.5362449        1            0          100 
   43800    3.5451789        1            0          100 
   43900    3.5537529        1            0          100 
   44000     3.562741        1            0          100 
   44100    3.5711379        1            0          100 
   44200    3.5806689        1            0          100 
   44300    3.5890799        1            0          100 
   44400     3.597954        1            0          100 
   44500     3.606611        1            0          100 
   44600     3.615783        1            0          100 
   44700    3.6246328        1            0          100 
   44800     3.633857        1            0          100 
   44900     3.642427        1            0          100 
   45000     3.651124        1            0          100 
   45100     3.660284        1            0          100 
   45200    3.6691411        1            0          100 
   45300    3.6779211        1            0          100 
   45400     3.686568        1            0          100 
   45500    3.6959341        1            0          100 
   45600     3.704375        1            0          100 
   45700     3.713233        1            0          100 
   45800    3.7219958        1            0          100 
   45900     3.731077        1            0          100 
   46000    3.7397499        1            0          100 
   46100    3.7504749        1            0          100 
   46200     3.759217        1            0          100 
   46300     3.768477        1            0          100 
   46400    3.7781019        1            0          100 
   46500    3.7865789        1            0          100 
   46600     3.795351        1            0          100 
   46700    3.8038681        1            0          100 
   46800     3.813396        1            0          100 
   46900    3.8220439        1            0          100 
   47000     3.830987        1            0          100 
   47100     3.839844        1            0          100 
   47200     3.848794        1            0          100 
   47300      3.85831        1            0          100 
   47400    3.8677518        1            0          100 
   47500     3.877449        1            0          100 
   47600    3.8863409        1            0          100 
   47700     3.895273        1            0          100 
   47800     3.904217        1            0          100 
   47900     3.914196        1            0          100 
   48000     3.923456        1            0          100 
   48100    3.9325299        1            0          100 
   48200    3.9415131        1            0          100 
   48300    3.9501369        1            0          100 
   48400    3.9592319        1            0          100 
   48500    3.9688179        1            0          100 
   48600     3.978219        1            0          100 
   48700    3.9867759        1            0          100 
   48800    3.9991388        1            0          100 
   48900    4.0079629        1            0          100 
   49000    4.0167069        1            0          100 
   49100    4.0261269        1            0          100 
   49200    4.0346639        1            0          100 
   49300    4.0438259        1            0          100 
   49400    4.0523229        1            0          100 
   49500    4.0610271        1            0          100 
   49600    4.0697179        1            0          100 
   49700    4.0789649        1            0          100 
   49800     4.087254        1            0          100 
   49900    4.0971749        1            0          100 
   50000    4.1056869        1            0          100 
   50100    4.1153529        1            0          100 
   50200    4.1244309        1            0          100 
   50300     4.133074        1            0          100 
   50400      4.14223        1            0          100 
   50500    4.1510329        1            0          100 
   50600    4.1610351        1            0          100 
   50700     4.170049        1            0          100 
   50800      4.18098        1            0          100 
   50900     4.189357        1            0          100 
   51000     4.198303        1            0          100 
   51100     4.207463        1            0          100 
   51200    4.2163548        1            0          100 
   51300    4.2255299        1            0          100 
   51400    4.2351289        1            0          100 
   51500    4.2449598        1            0          100 
   51600    4.2547069        1            0          100 
   51700    4.2643299        1            0          100 
   51800    4.2740788        1            0          100 
   51900     4.283973        1            0          100 
   52000    4.2939138        1            0          100 
   52100     4.303468        1            0          100 
   52200    4.3132548        1            0          100 
   52300    4.3228879        1            0          100 
   52400    4.3326199        1            0          100 
   52500     4.342505        1            0          100 
   52600    4.3520629        1            0          100 
   52700    4.3616309        1            0          100 
   52800     4.371453        1            0          100 
   52900     4.382694        1            0          100 
   53000      4.39342        1            0          100 
   53100     4.403218        1            0          100 
   53200    4.4136319        1            0          100 
   53300    4.4236519        1            0          100 
   53400    4.4341838        1            0          100 
   53500     4.444176        1            0          100 
   53600    4.4539618        1            0          100 
   53700    4.4643509        1            0          100 
   53800    4.4746571        1            0          100 
   53900    4.4848349        1            0          100 
   54000     4.495167        1            0          100 
   54100    4.5055449        1            0          100 
   54200    4.5160739        1            0          100 
   54300     4.526278        1            0          100 
   54400    4.5359349        1            0          100 
   54500     4.545819        1            0          100 
   54600     4.555721        1            0          100 
   54700     4.565731        1            0          100 
   54800    4.5759449        1            0          100 
   54900    4.5863299        1            0          100 
   55000    4.5962899        1            0          100 
   55100    4.6062579        1            0          100 
   55200     4.616895        1            0          100 
   55300    4.6274059        1            0          100 
   55400    4.6370111        1            0          100 
   55500     4.647404        1            0          100 
   55600    4.6578929        1            0          100 
   55700    4.6685688        1            0          100 
   55800     4.683018        1            0          100 
   55900    4.6936109        1            0          100 
   56000    4.7034259        1            0          100 
   56100     4.713892        1            0          100 
   56200    4.7243149        1            0          100 
   56300    4.7352788        1            0          100 
   56400    4.7455249        1            0          100 
   56500    4.7556241        1            0          100 
   56600    4.7656989        1            0          100 
   56700    4.7758899        1            0          100 
   56800    4.7865529        1            0          100 
   56900     4.797442        1            0          100 
   57000     4.807349        1            0          100 
   57100    4.8176711        1            0          100 
   57200    4.8291409        1            0          100 
   57300     4.839488        1            0          100 
   57400    4.8499238        1            0          100 
   57500     4.860553        1            0          100 
   57600    4.8704879        1            0          100 
   57700    4.8809578        1            0          100 
   57800    4.8907609        1            0          100 
   57900    4.9014249        1            0          100 
   58000    4.9119608        1            0          100 
   58100      4.92224        1            0          100 
   58200     4.933603        1            0          100 
   58300     4.944355        1            0          100 
   58400    4.9545119        1            0          100 
   58500     4.964658        1            0          100 
   58600     4.975306        1            0          100 
   58700    4.9852819        1            0          100 
   58800     4.996753        1            0          100 
   58900    5.0068159        1            0          100 
   59000     5.017302        1            0          100 
   59100    5.0271199        1            0          100 
   59200     5.037276        1            0          100 
   59300     5.047334        1            0          100 
   59400     5.057498        1            0          100 
   59500    5.0674889        1            0          100 
   59600    5.0782759        1            0          100 
   59700     5.088454        1            0          100 
   59800     5.098803        1            0          100 
   59900     5.109216        1            0          100 
   60000     5.119174        1            0          100 
   60100     5.129952        1            0          100 
   60200    5.1407709        1            0          100 
   60300    5.1513801        1            0          100 
   60400    5.1624498        1            0          100 
   60500    5.1724279        1            0          100 
   60600    5.1834459        1            0          100 
   60700    5.1947799        1            0          100 
   60800    5.2046959        1            0          100 
   60900    5.2160978        1            0          100 
   61000    5.2274098        1            0          100 
   61100     5.237386        1            0          100 
   61200    5.2491128        1            0          100 
   61300    5.2605929        1            0          100 
   61400    5.2709289        1            0          100 
   61500    5.2817779        1            0          100 
   61600    5.2949789        1            0          100 
   61700     5.307502        1            0          100 
   61800    5.3180048        1            0          100 
   61900     5.328963        1            0          100 
   62000    5.3401039        1            0          100 
   62100    5.3505979        1            0          100 
   62200    5.3622658        1            0          100 
   62300    5.3727109        1            0          100 
   62400    5.3827939        1            0          100 
   62500    5.3947179        1            0          100 
   62600     5.404856        1            0          100 
   62700    5.4155769        1            0          100 
   62800     5.426409        1            0          100 
   62900    5.4366629        1            0          100 
   63000     5.448451        1            0          100 
   63100     5.459002        1            0          100 
   63200    5.4700599        1            0          100 
   63300     5.479728        1            0          100 
   63400      5.49015        1            0          100 
   63500     5.501066        1            0          100 
   63600     5.512933        1            0          100 
   63700    5.5227349        1            0          100 
   63800     5.532434        1            0          100 
   63900     5.544013        1            0          100 
   64000    5.5548699        1            0          100 
   64100    5.5655758        1            0          100 
   64200    5.5766571        1            0          100 
   64300    5.5867729        1            0          100 
   64400     5.599045        1            0          100 
   64500    5.6097929        1            0          100 
   64600     5.619909        1            0          100 
   64700     5.630527        1            0          100 
   64800    5.6432281        1            0          100 
   64900    5.6541009        1            0          100 
   65000     5.664824        1            0          100 
   65100     5.675195        1            0          100 
   65200    5.6856329        1            0          100 
   65300     5.697978        1            0          100 
   65400    5.7082629        1            0          100 
   65500     5.718493        1            0          100 
   65600    5.7304718        1            0          100 
   65700      5.74158        1            0          100 
   65800     5.752208        1            0          100 
   65900     5.762758        1            0          100 
   66000    5.7726939        1            0          100 
   66100    5.7844849        1            0          100 
   66200     5.796104        1            0          100 
   66300    5.8070951        1            0          100 
   66400    5.8178129        1            0          100 
   66500     5.829042        1            0          100 
   66600    5.8396258        1            0          100 
   66700    5.8506019        1            0          100 
   66800    5.8626969        1            0          100 
   66900     5.872721        1            0          100 
   67000     5.883301        1            0          100 
   67100     5.895416        1            0          100 
   67200    5.9049499        1            0          100 
   67300    5.9159861        1            0          100 
   67400    5.9264259        1            0          100 
   67500    5.9364579        1            0          100 
   67600    5.9472558        1            0          100 
   67700     5.958555        1            0          100 
   67800    5.9689538        1            0          100 
   67900     5.980289        1            0          100 
   68000    5.9912419        1            0          100 
   68100    6.0021141        1            0          100 
   68200    6.0134039        1            0          100 
   68300     6.024266        1            0          100 
   68400    6.0351279        1            0          100 
   68500     6.047122        1            0          100 
   68600    6.0570829        1            0          100 
   68700    6.0679159        1            0          100 
   68800    6.0791209        1            0          100 
   68900     6.089397        1            0          100 
   69000    6.1006429        1            0          100 
   69100     6.110709        1            0          100 
   69200     6.119848        1            0          100 
   69300    6.1297019        1            0          100 
   69400     6.142004        1            0          100 
   69500     6.154099        1            0          100 
   69600     6.165899        1            0          100 
   69700     6.176846        1            0          100 
   69800    6.1874309        1            0          100 
   69900    6.1988161        1            0          100 
   70000    6.2109919        1            0          100 
   70100     6.220993        1            0          100 
   70200    6.2313859        1            0          100 
   70300     6.242204        1            0          100 
   70400    6.2528958        1            0          100 
   70500    6.2637279        1            0          100 
   70600    6.2737889        1            0          100 
   70700    6.2839839        1            0          100 
   70800    6.2954988        1            0          100 
   70900     6.306663        1            0          100 
   71000    6.3180969        1            0          100 
   71100    6.3299549        1            0          100 
   71200     6.339787        1            0          100 
   71300    6.3518329        1            0          100 
   71400     6.362695        1            0          100 
   71500    6.3728199        1            0          100 
   71600    6.3848629        1            0          100 
   71700    6.3964109        1            0          100 
   71800     6.406343        1            0          100 
   71900    6.4169419        1            0          100 
   72000    6.4324479        1            0          100 
   72100    6.4449029        1            0          100 
   72200      6.45469        1            0          100 
   72300      6.46538        1            0          100 
   72400    6.4762499        1            0          100 
   72500    6.4873369        1            0          100 
   72600    6.4978809        1            0          100 
   72700    6.5085828        1            0          100 
   72800     6.518944        1            0          100 
   72900    6.5300949        1            0          100 
   73000    6.5424969        1            0          100 
   73100    6.5535328        1            0          100 
   73200    6.5644889        1            0          100 
   73300    6.5749669        1            0          100 
   73400    6.5848689        1            0          100 
   73500    6.5963919        1            0          100 
   73600     6.606787        1            0          100 
   73700     6.618161        1            0          100 
   73800    6.6289139        1            0          100 
   73900     6.639029        1            0          100 
   74000    6.6506989        1            0          100 
   74100    6.6613688        1            0          100 
   74200     6.671725        1            0          100 
   74300     6.682508        1            0          100 
   74400    6.6946828        1            0          100 
   74500     6.704891        1            0          100 
   74600     6.716835        1            0          100 
   74700    6.7273901        1            0          100 
   74800    6.7374299        1            0          100 
   74900     6.749722        1            0          100 
   75000    6.7617259        1            0          100 
   75100    6.7719719        1            0          100 
   75200    6.7833259        1            0          100 
   75300     6.795893        1            0          100 
   75400     6.806067        1            0          100 
   75500    6.8171339        1            0          100 
   75600    6.8283188        1            0          100 
   75700    6.8388278        1            0          100 
   75800     6.850029        1            0          100 
   75900    6.8628159        1            0          100 
   76000    6.8726618        1            0          100 
   76100    6.8834009        1            0          100 
   76200    6.8969059        1            0          100 
   76300     6.907285        1            0          100 
   76400    6.9182169        1            0          100 
   76500      6.93046        1            0          100 
   76600    6.9417729        1            0          100 
   76700     6.952672        1            0          100 
   76800    6.9636118        1            0          100 
   76900    6.9749041        1            0          100 
   77000    6.9849689        1            0          100 
   77100     6.996906        1            0          100 
   77200    7.0077219        1            0          100 
   77300     7.018857        1            0          100 
   77400     7.029778        1            0          100 
   77500         7.04        1            0          100 
   77600    7.0511789        1            0          100 
   77700     7.062639        1            0          100 
   77800      7.07388        1            0          100 
   77900     7.085526        1            0          100 
   78000    7.0967269        1            0          100 
   78100     7.107013        1            0          100 
   78200     7.119051        1            0          100 
   78300      7.13429        1            0          100 
   78400    7.1484799        1            0          100 
   78500    7.1607459        1            0          100 
   78600    7.1712599        1            0          100 
   78700    7.1824639        1            0          100 
   78800    7.1944668        1            0          100 
   78900    7.2044129        1            0          100 
   79000    7.2152538        1            0          100 
   79100      7.22594        1            0          100 
   79200    7.2359419        1            0          100 
   79300      7.24786        1            0          100 
   79400     7.257695        1            0          100 
   79500    7.2684679        1            0          100 
   79600     7.280139        1            0          100 
   79700     7.291064        1            0          100 
   79800    7.3024769        1            0          100 
   79900    7.3134799        1            0          100 
   80000    7.3245149        1            0          100 
   80100     7.335165        1            0          100 
   80200    7.3462489        1            0          100 
   80300     7.356405        1            0          100 
   80400      7.36709        1            0          100 
   80500     7.378144        1            0          100 
   80600    7.3880119        1            0          100 
   80700    7.3998001        1            0          100 
   80800    7.4117539        1            0          100 
   80900    7.4216619        1            0          100 
   81000    7.4337809        1            0          100 
   81100    7.4449039        1            0          100 
   81200    7.4548309        1            0          100 
   81300     7.465167        1            0          100 
   81400     7.475837        1            0          100 
   81500     7.485631        1            0          100 
   81600    7.4969919        1            0          100 
   81700     7.507839        1            0          100 
   81800     7.518502        1            0          100 
   81900    7.5291309        1            0          100 
   82000    7.5402648        1            0          100 
   82100    7.5512819        1            0          100 
   82200     7.562196        1            0          100 
   82300    7.5726259        1            0          100 
   82400    7.5838289        1            0          100 
   82500    7.5965569        1            0          100 
   82600     7.606492        1            0          100 
   82700     7.617475        1            0          100 
   82800    7.6283019        1            0          100 
   82900     7.638823        1            0          100 
   83000     7.649766        1            0          100 
   83100     7.661134        1            0          100 
   83200    7.6709681        1            0          100 
   83300     7.681849        1            0          100 
   83400     7.693851        1            0          100 
   83500     7.704139        1            0          100 
   83600     7.714678        1            0          100 
   83700    7.7256179        1            0          100 
   83800    7.7370749        1            0          100 
   83900    7.7478969        1            0          100 
   84000    7.7581289        1            0          100 
   84100    7.7683918        1            0          100 
   84200    7.7795238        1            0          100 
   84300       7.7911        1            0          100 
   84400    7.8015339        1            0          100 
   84500     7.812588        1            0          100 
   84600     7.822763        1            0          100 
   84700     7.834409        1            0          100 
   84800    7.8460898        1            0          100 
   84900    7.8560801        1            0          100 
   85000     7.867377        1            0          100 
   85100    7.8787708        1            0          100 
   85200      7.88924        1            0          100 
   85300     7.900485        1            0          100 
   85400    7.9111118        1            0          100 
   85500     7.921061        1            0          100 
   85600    7.9322119        1            0          100 
   85700    7.9442198        1            0          100 
   85800    7.9538779        1            0          100 
   85900    7.9637439        1            0          100 
   86000    7.9740889        1            0          100 
   86100    7.9850841        1            0          100 
   86200    7.9964089        1            0          100 
   86300    8.0063539        1            0          100 
   86400    8.0170529        1            0          100 
   86500     8.028069        1            0          100 
   86600    8.0385458        1            0          100 
   86700    8.0506079        1            0          100 
   86800    8.0617568        1            0          100 
   86900    8.0720749        1            0          100 
   87000     8.082974        1            0          100 
   87100     8.094182        1            0          100 
   87200     8.104207        1            0          100 
   87300    8.1148789        1            0          100 
   87400     8.125623        1            0          100 
   87500    8.1363859        1            0          100 
   87600     8.149961        1            0          100 
   87700     8.160593        1            0          100 
   87800     8.170542        1            0          100 
   87900    8.1814489        1            0          100 
   88000    8.1928248        1            0          100 
   88100    8.2026269        1            0          100 
   88200     8.214133        1            0          100 
   88300    8.2243478        1            0          100 
   88400    8.2352319        1            0          100 
   88500    8.2470009        1            0          100 
   88600    8.2578299        1            0          100 
   88700    8.2678339        1            0          100 
   88800      8.28005        1            0          100 
   88900     8.290801        1            0          100 
   89000    8.3009501        1            0          100 
   89100    8.3129709        1            0          100 
   89200    8.3232698        1            0          100 
   89300    8.3346319        1            0          100 
   89400     8.346853        1            0          100 
   89500    8.3572021        1            0          100 
   89600    8.3676209        1            0          100 
   89700     8.378823        1            0          100 
   89800    8.3893259        1            0          100 
   89900    8.4065249        1            0          100 
   90000     8.417537        1            0          100 
   90100    8.4280169        1            0          100 
   90200     8.438292        1            0          100 
   90300    8.4493818        1            0          100 
   90400    8.4607129        1            0          100 
   90500    8.4709139        1            0          100 
   90600    8.4814799        1            0          100 
   90700      8.49348        1            0          100 
   90800     8.503664        1            0          100 
   90900     8.515244        1            0          100 
   91000      8.52648        1            0          100 
   91100     8.536705        1            0          100 
   91200    8.5488899        1            0          100 
   91300    8.5590899        1            0          100 
   91400    8.5690079        1            0          100 
   91500    8.5811219        1            0          100 
   91600     8.591985        1            0          100 
   91700     8.602282        1            0          100 
   91800      8.61325        1            0          100 
   91900     8.623364        1            0          100 
   92000     8.633949        1            0          100 
   92100    8.6459229        1            0          100 
   92200    8.6558011        1            0          100 
   92300     8.666451        1            0          100 
   92400    8.6771359        1            0          100 
   92500     8.687922        1            0          100 
   92600    8.7003779        1            0          100 
   92700    8.7115269        1            0          100 
   92800    8.7214749        1            0          100 
   92900    8.7322168        1            0          100 
   93000    8.7442219        1            0          100 
   93100     8.754456        1            0          100 
   93200    8.7649739        1            0          100 
   93300    8.7753599        1            0          100 
   93400    8.7863979        1            0          100 
   93500    8.7979898        1            0          100 
   93600    8.8086519        1            0          100 
   93700     8.819792        1            0          100 
   93800     8.830508        1            0          100 
   93900     8.841157        1            0          100 
   94000     8.852252        1            0          100 
   94100     8.863899        1            0          100 
   94200     8.873899        1            0          100 
   94300    8.8841898        1            0          100 
   94400    8.8967369        1            0          100 
   94500     8.907325        1            0          100 
   94600    8.9175289        1            0          100 
   94700    8.9278519        1            0          100 
   94800    8.9388139        1            0          100 
   94900    8.9508228        1            0          100 
   95000    8.9622099        1            0          100 
   95100     8.972239        1            0          100 
   95200     8.982568        1            0          100 
   95300    8.9939499        1            0          100 
   95400     9.004463        1            0          100 
   95500     9.016222        1            0          100 
   95600    9.0270081        1            0          100 
   95700     9.037291        1            0          100 
   95800    9.0484629        1            0          100 
   95900     9.059334        1            0          100 
   96000     9.069638        1            0          100 
   96100    9.0822809        1            0          100 
   96200     9.092864        1            0          100 
   96300    9.1033518        1            0          100 
   96400     9.113955        1            0          100 
   96500     9.123714        1            0          100 
   96600    9.1343188        1            0          100 
   96700    9.1469119        1            0          100 
   96800     9.157536        1            0          100 
   96900     9.168848        1            0          100 
   97000    9.1799119        1            0          100 
   97100    9.1904109        1            0          100 
   97200    9.2008898        1            0          100 
   97300     9.211962        1            0          100 
   97400    9.2224751        1            0          100 
   97500    9.2341919        1            0          100 
   97600    9.2462099        1            0          100 
   97700     9.256326        1            0          100 
   97800     9.268199        1            0          100 
   97900     9.278749        1            0          100 
   98000     9.289403        1            0          100 
   98100     9.301245        1            0          100 
   98200      9.31355        1            0          100 
   98300     9.325665        1            0          100 
   98400     9.337939        1            0          100 
   98500    9.3506188        1            0          100 
   98600     9.362689        1            0          100 
   98700    9.3723829        1            0          100 
   98800    9.3831658        1            0          100 
   98900     9.394486        1            0          100 
   99000    9.4046619        1            0          100 
   99100     9.415792        1            0          100 
   99200     9.427501        1            0          100 
   99300      9.43766        1            0          100 
   99400    9.4490039        1            0          100 
   99500    9.4593019        1            0          100 
   99600    9.4696329        1            0          100 
   99700    9.4803829        1            0          100 
   99800    9.4930019        1            0          100 
   99900     9.503232        1            0          100 
  100000     9.513757        1            0          100 
Loop time of 9.51379 on 1 procs for 100000 steps with 1 atoms

94.1% CPU use with 1 MPI tasks x no OpenMP threads

MPI task timing breakdown:
Section |  min time  |  avg time  |  max time  |%varavg| %total
---------------------------------------------------------------
Pair    | 0.063529   | 0.063529   | 0.063529   |   0.0 |  0.67
Neigh   | 5.0068e-06 | 5.0068e-06 | 5.0068e-06 |   0.0 |  0.00
Comm    | 0.0347     | 0.0347     | 0.0347     |   0.0 |  0.36
Output  | 0.62666    | 0.62666    | 0.62666    |   0.0 |  6.59
Modify  | 8.7047     | 8.7047     | 8.7047     |   0.0 | 91.50
Other   |            | 0.08422    |            |       |  0.89

Nlocal:    1 ave 1 max 1 min
Histogram: 1 0 0 0 0 0 0 0 0 0
Nghost:    0 ave 0 max 0 min
Histogram: 1 0 0 0 0 0 0 0 0 0
Neighs:    0 ave 0 max 0 min
Histogram: 1 0 0 0 0 0 0 0 0 0

Total # of neighbors = 0
Ave neighs/atom = 0
Neighbor list builds = 1
Dangerous builds = 0

Please see the log.cite file for references relevant to this simulation

Total wall time: 0:00:09
