atom_style  peri
units       si

###############################################
# Size, contact parameters
###############################################

#Elastic-Plastic Parameters: K G s00 alpha YieldStress
variable    K equal 1000 #Bulk Modulus
variable    G equal 1000 #Shear Modulus
variable    hor equal 100 #Horizon
variable    s00 equal 2000 #Bond Constant
variable    alpha equal 1e6 #Bond Constant
variable    Yield equal 1e6 #Yield Stress

#Lattice:
include     in.trial
variable diam equal 2.00000000000000000000000000000000
variable rad equal ${diam}*0.5
variable rad equal 2*0.5
#variable    diam equal 4
#variable    rad equal ${diam}*0.5
variable    vol equal 4/3*PI*${rad}^3
variable    vol equal 4/3*PI*1^3

variable    kn equal 1e6
variable    damp equal 0.0
variable    coeffFric equal .3
variable    kt equal 0.5*${kn}
variable    kt equal 0.5*1000000
variable    dens equal 900
variable    minmass equal PI*${rad}^3*${dens}*4/3
variable    minmass equal PI*1^3*${dens}*4/3
variable    minmass equal PI*1^3*900*4/3
variable    gravity equal 9.810

variable    omega equal 0.5*10^(-3)
variable    lambda equal 8.0*10^5

variable    waterDensity equal 1017.0

###############################################
# Geometry-related parameters
###############################################

variable    lx equal  50
variable    ly equal  ${lx}
variable    ly equal  50
variable    lz equal  ${lx}
variable    lz equal  50

###############################################
# Create box
###############################################

boundary    f f f
atom_modify	map array

variable    x0 equal -${lx}
variable    x0 equal -50
variable    x1 equal ${lx}
variable    x1 equal 50
variable    x2 equal -${lx}/4
variable    x2 equal -50/4
variable    x3 equal ${lx}/4
variable    x3 equal 50/4
variable    y0 equal -${ly}
variable    y0 equal -50
variable    y1 equal ${ly}
variable    y1 equal 50
variable    y2 equal -${ly}/4
variable    y2 equal -50/4
variable    y3 equal ${ly}/4
variable    y3 equal 50/4
variable    z0 equal -${lz}
variable    z0 equal -50
variable    z1 equal ${lz}
variable    z1 equal 50
variable    zeq equal 0.577461425395942*${rad}
variable    zeq equal 0.577461425395942*1
variable    z2 equal -${diam}/5-${zeq}
variable    z2 equal -2/5-${zeq}
variable    z2 equal -2/5-0.577461425395942
variable    z3 equal ${diam}/5-${zeq}
variable    z3 equal 2/5-${zeq}
variable    z3 equal 2/5-0.577461425395942

region      boxreg block ${x0} ${x1} ${y0} ${y1} ${z0} ${z1} units box
region      boxreg block -50 ${x1} ${y0} ${y1} ${z0} ${z1} units box
region      boxreg block -50 50 ${y0} ${y1} ${z0} ${z1} units box
region      boxreg block -50 50 -50 ${y1} ${z0} ${z1} units box
region      boxreg block -50 50 -50 50 ${z0} ${z1} units box
region      boxreg block -50 50 -50 50 -50 ${z1} units box
region      boxreg block -50 50 -50 50 -50 50 units box
create_box  1 boxreg
Created orthogonal box = (-50 -50 -50) to (50 50 50)
  1 by 1 by 1 MPI processor grid

lattice     sc ${rad}
lattice     sc 1
Lattice spacing in x,y,z = 1 1 1
region      element block ${x2} ${x1} ${y2} ${y3} ${z2} ${z3} units box
region      element block -12.5 ${x1} ${y2} ${y3} ${z2} ${z3} units box
region      element block -12.5 50 ${y2} ${y3} ${z2} ${z3} units box
region      element block -12.5 50 -12.5 ${y3} ${z2} ${z3} units box
region      element block -12.5 50 -12.5 12.5 ${z2} ${z3} units box
region      element block -12.5 50 -12.5 12.5 -0.977461425395942 ${z3} units box
region      element block -12.5 50 -12.5 12.5 -0.977461425395942 -0.177461425395942 units box

###############################################
# Create atoms
###############################################

include in.include.equilibrium
create_atoms  1 single 0 0 -2.36606274976983499414018297102302
Created 1 atoms
  Time spent = 2.69413e-05 secs
#create_atoms  1 single 0 0 -${zeq}
#create_atoms  1 region element
set group all volume   ${vol}
set group all volume   4.18879020478639
  1 settings made for volume
set group all density  ${dens}
set group all density  900
  1 settings made for density
set group all mass     ${minmass}
set group all mass     3769.91118430775
  1 settings made for mass

###############################################
# Computes and Property/atom variables
###############################################

variable    velocity atom sqrt(vx*vx+vy*vy+vz*vz)
variable    R        atom (3/4*mass/(${dens}*PI))^(1/3)
variable    R        atom (3/4*mass/(900*PI))^(1/3)

###############################################
# Force Calculations
###############################################

variable h     atom (z<-${rad})*(2*${rad}+z)+(z>=${rad})*(${rad}+z)
variable h     atom (z<-1)*(2*${rad}+z)+(z>=${rad})*(${rad}+z)
variable h     atom (z<-1)*(2*1+z)+(z>=${rad})*(${rad}+z)
variable h     atom (z<-1)*(2*1+z)+(z>=1)*(${rad}+z)
variable h     atom (z<-1)*(2*1+z)+(z>=1)*(1+z)
variable Vwed  atom 1/3*PI*v_h^2*(3*${rad}-v_h)
variable Vwed  atom 1/3*PI*v_h^2*(3*1-v_h)

variable V1    atom (z<-${rad})*(z>=-2*${rad})*(${vol}-v_Vwed)
variable V1    atom (z<-1)*(z>=-2*${rad})*(${vol}-v_Vwed)
variable V1    atom (z<-1)*(z>=-2*1)*(${vol}-v_Vwed)
variable V1    atom (z<-1)*(z>=-2*1)*(4.18879020478639-v_Vwed)
variable V2    atom (z<0)*(z>=-${rad})*(v_Vwed)
variable V2    atom (z<0)*(z>=-1)*(v_Vwed)
variable V3    atom (z<-2*${rad})*${vol}
variable V3    atom (z<-2*1)*${vol}
variable V3    atom (z<-2*1)*4.18879020478639

variable Vdisp atom v_V1+v_V2+v_V3

variable Fb    atom ${waterDensity}*${gravity}*v_Vdisp
variable Fb    atom 1017*${gravity}*v_Vdisp
variable Fb    atom 1017*9.81*v_Vdisp
variable Fg    atom ${gravity}*mass
variable Fg    atom 9.81*mass
variable Fd    atom (z<${rad})*(-vz*0)
variable Fd    atom (z<1)*(-vz*0)
variable Fztot atom v_Fb-v_Fg+v_Fd

###############################################
# Fixes and pair styles
###############################################

comm_style    tiled
timestep      2e-4

pair_style    peri/eps
pair_coeff    * *      ${K} ${G} ${hor} ${s00} ${alpha} ${Yield}
pair_coeff    * *      1000 ${G} ${hor} ${s00} ${alpha} ${Yield}
pair_coeff    * *      1000 1000 ${hor} ${s00} ${alpha} ${Yield}
pair_coeff    * *      1000 1000 100 ${s00} ${alpha} ${Yield}
pair_coeff    * *      1000 1000 100 2000 ${alpha} ${Yield}
pair_coeff    * *      1000 1000 100 2000 1000000 ${Yield}
pair_coeff    * *      1000 1000 100 2000 1000000 1000000

fix           1 all    nve
fix           2 all    addforce 0 0 v_Fztot

###############################################
# Run settings
###############################################

variable      dumpfreq equal 10
variable      logfreq equal 100

variable      skin equal 0.3*${diam}
variable      skin equal 0.3*2
neighbor      ${skin} bin
neighbor      0.6 bin

comm_modify	  vel yes cutoff ${diam}
comm_modify	  vel yes cutoff 2

thermo_style	custom step cpu atoms ke lx
thermo_modify	flush yes lost warn
thermo        ${logfreq}
thermo        100

run 0
Neighbor list info ...
  update every 1 steps, delay 10 steps, check yes
  max neighbors/atom: 2000, page size: 100000
  master list distance cutoff = 100.6
  ghost atom cutoff = 100.6
  binsize = 50.3, bins = 2 2 2
  2 neighbor lists, perpetual/occasional/extra = 1 1 0
  (1) pair peri/eps, perpetual
      attributes: half, newton on
      pair build: half/bin/atomonly/newton
      stencil: half/bin/3d/newton
      bin: standard
  (2) fix PERI_NEIGH, occasional
      attributes: full, newton on
      pair build: full/bin/atomonly
      stencil: full/bin/3d
      bin: standard
Peridynamic bonds:
  total # of bonds = 0
  bonds/atom = 0
Per MPI rank memory allocation (min/avg/max) = 0.7741 | 0.7741 | 0.7741 Mbytes
Step CPU Atoms KinEng Lx 
       0            0        1            0          100 
Loop time of 2.14577e-06 on 1 procs for 0 steps with 1 atoms

46.6% CPU use with 1 MPI tasks x no OpenMP threads

MPI task timing breakdown:
Section |  min time  |  avg time  |  max time  |%varavg| %total
---------------------------------------------------------------
Pair    | 0          | 0          | 0          |   0.0 |  0.00
Neigh   | 0          | 0          | 0          |   0.0 |  0.00
Comm    | 0          | 0          | 0          |   0.0 |  0.00
Output  | 0          | 0          | 0          |   0.0 |  0.00
Modify  | 0          | 0          | 0          |   0.0 |  0.00
Other   |            | 2.146e-06  |            |       |100.00

Nlocal:    1 ave 1 max 1 min
Histogram: 1 0 0 0 0 0 0 0 0 0
Nghost:    0 ave 0 max 0 min
Histogram: 1 0 0 0 0 0 0 0 0 0
Neighs:    0 ave 0 max 0 min
Histogram: 1 0 0 0 0 0 0 0 0 0
FullNghs:  0 ave 0 max 0 min
Histogram: 1 0 0 0 0 0 0 0 0 0

Total # of neighbors = 0
Ave neighs/atom = 0
Neighbor list builds = 0
Dangerous builds = 0
#dump 1        all custom ${dumpfreq} ../data/DUMP/3D_peri.dump id type volume               mass x y z v_velocity

dump 2        all custom ${dumpfreq} ../data/DUMP/3D_peri.dump id type x y z v_R
dump 2        all custom 10 ../data/DUMP/3D_peri.dump id type x y z v_R

run		50000
Neighbor list info ...
  update every 1 steps, delay 10 steps, check yes
  max neighbors/atom: 2000, page size: 100000
  master list distance cutoff = 100.6
  ghost atom cutoff = 100.6
  binsize = 50.3, bins = 2 2 2
  1 neighbor lists, perpetual/occasional/extra = 1 0 0
  (1) pair peri/eps, perpetual
      attributes: half, newton on
      pair build: half/bin/atomonly/newton
      stencil: half/bin/3d/newton
      bin: standard
Per MPI rank memory allocation (min/avg/max) = 1.39 | 1.39 | 1.39 Mbytes
Step CPU Atoms KinEng Lx 
       0            0        1            0          100 
     100 0.0064060688        1            0          100 
     200  0.012972116        1            0          100 
     300  0.018449068        1            0          100 
     400  0.024037123        1            0          100 
     500  0.029469013        1            0          100 
     600  0.034925938        1            0          100 
     700  0.040439129        1            0          100 
     800  0.045639992        1            0          100 
     900  0.051141977        1            0          100 
    1000  0.056500912        1            0          100 
    1100  0.062039137        1            0          100 
    1200  0.067097902        1            0          100 
    1300   0.07267499        1            0          100 
    1400   0.07792592        1            0          100 
    1500  0.083254099        1            0          100 
    1600  0.088815928        1            0          100 
    1700  0.093900919        1            0          100 
    1800  0.099376917        1            0          100 
    1900   0.10468698        1            0          100 
    2000   0.11041594        1            0          100 
    2100   0.11595106        1            0          100 
    2200   0.12165499        1            0          100 
    2300   0.12691712        1            0          100 
    2400   0.13221002        1            0          100 
    2500   0.13788009        1            0          100 
    2600   0.14319205        1            0          100 
    2700   0.14870191        1            0          100 
    2800   0.15459991        1            0          100 
    2900   0.16025496        1            0          100 
    3000   0.16620398        1            0          100 
    3100   0.17182612        1            0          100 
    3200   0.17699313        1            0          100 
    3300   0.18275094        1            0          100 
    3400   0.18816113        1            0          100 
    3500   0.19331694        1            0          100 
    3600    0.1984601        1            0          100 
    3700   0.20396996        1            0          100 
    3800   0.20931005        1            0          100 
    3900     0.214504        1            0          100 
    4000   0.21961808        1            0          100 
    4100   0.22527909        1            0          100 
    4200   0.23070502        1            0          100 
    4300   0.23623109        1            0          100 
    4400   0.24176002        1            0          100 
    4500     0.247437        1            0          100 
    4600   0.25290895        1            0          100 
    4700   0.25851297        1            0          100 
    4800   0.26378012        1            0          100 
    4900   0.26918793        1            0          100 
    5000   0.27445197        1            0          100 
    5100     0.279948        1            0          100 
    5200   0.28518891        1            0          100 
    5300   0.29058099        1            0          100 
    5400   0.29576993        1            0          100 
    5500   0.30104899        1            0          100 
    5600    0.3065269        1            0          100 
    5700   0.31177092        1            0          100 
    5800   0.31710005        1            0          100 
    5900   0.32230997        1            0          100 
    6000   0.32788396        1            0          100 
    6100   0.33323407        1            0          100 
    6200      0.33901        1            0          100 
    6300   0.34398508        1            0          100 
    6400   0.34921908        1            0          100 
    6500   0.35474992        1            0          100 
    6600   0.36021709        1            0          100 
    6700   0.36532307        1            0          100 
    6800   0.37106395        1            0          100 
    6900   0.37702203        1            0          100 
    7000   0.38213396        1            0          100 
    7100   0.38783908        1            0          100 
    7200   0.39325309        1            0          100 
    7300   0.39821506        1            0          100 
    7400   0.40350103        1            0          100 
    7500   0.40888405        1            0          100 
    7600   0.41395903        1            0          100 
    7700   0.41908503        1            0          100 
    7800   0.42445207        1            0          100 
    7900   0.43021107        1            0          100 
    8000   0.43616605        1            0          100 
    8100   0.44223595        1            0          100 
    8200   0.44779396        1            0          100 
    8300   0.45303607        1            0          100 
    8400   0.45875406        1            0          100 
    8500   0.46423101        1            0          100 
    8600   0.46958804        1            0          100 
    8700   0.47492599        1            0          100 
    8800   0.48008609        1            0          100 
    8900   0.48514295        1            0          100 
    9000   0.49065113        1            0          100 
    9100   0.49633598        1            0          100 
    9200   0.50165105        1            0          100 
    9300   0.50703502        1            0          100 
    9400   0.51237106        1            0          100 
    9500   0.51828194        1            0          100 
    9600   0.52339196        1            0          100 
    9700   0.52851701        1            0          100 
    9800   0.53413296        1            0          100 
    9900   0.53941512        1            0          100 
   10000   0.54480505        1            0          100 
   10100   0.55013704        1            0          100 
   10200   0.55544901        1            0          100 
   10300   0.56045413        1            0          100 
   10400   0.56550813        1            0          100 
   10500   0.57106495        1            0          100 
   10600   0.57639599        1            0          100 
   10700   0.58163691        1            0          100 
   10800   0.58690906        1            0          100 
   10900   0.59209704        1            0          100 
   11000   0.59735203        1            0          100 
   11100   0.60308003        1            0          100 
   11200      0.60832        1            0          100 
   11300   0.61329508        1            0          100 
   11400   0.61856294        1            0          100 
   11500   0.62372208        1            0          100 
   11600   0.62873697        1            0          100 
   11700   0.63406992        1            0          100 
   11800   0.63976693        1            0          100 
   11900   0.64493203        1            0          100 
   12000   0.65014005        1            0          100 
   12100   0.65534806        1            0          100 
   12200   0.66027594        1            0          100 
   12300   0.66547298        1            0          100 
   12400   0.67072296        1            0          100 
   12500   0.67627907        1            0          100 
   12600   0.68154812        1            0          100 
   12700   0.68695402        1            0          100 
   12800   0.69240713        1            0          100 
   12900   0.69774199        1            0          100 
   13000   0.70300412        1            0          100 
   13100   0.70820594        1            0          100 
   13200   0.71337295        1            0          100 
   13300   0.71926498        1            0          100 
   13400   0.72434592        1            0          100 
   13500   0.72957492        1            0          100 
   13600   0.73501706        1            0          100 
   13700   0.74022293        1            0          100 
   13800   0.74535513        1            0          100 
   13900     0.750422        1            0          100 
   14000   0.75571394        1            0          100 
   14100   0.76082802        1            0          100 
   14200   0.76611805        1            0          100 
   14300   0.77128506        1            0          100 
   14400   0.77628493        1            0          100 
   14500     0.781322        1            0          100 
   14600   0.78667498        1            0          100 
   14700   0.79249096        1            0          100 
   14800   0.79797506        1            0          100 
   14900   0.80334091        1            0          100 
   15000   0.80844092        1            0          100 
   15100   0.81338906        1            0          100 
   15200   0.81912899        1            0          100 
   15300   0.82438993        1            0          100 
   15400   0.82944798        1            0          100 
   15500   0.83475995        1            0          100 
   15600   0.84028912        1            0          100 
   15700   0.84559011        1            0          100 
   15800   0.85101295        1            0          100 
   15900   0.85629797        1            0          100 
   16000    0.8614471        1            0          100 
   16100   0.86712694        1            0          100 
   16200   0.87317991        1            0          100 
   16300   0.87836909        1            0          100 
   16400   0.88423395        1            0          100 
   16500   0.89173007        1            0          100 
   16600   0.89933705        1            0          100 
   16700   0.90478611        1            0          100 
   16800   0.91020012        1            0          100 
   16900   0.91532993        1            0          100 
   17000   0.92149997        1            0          100 
   17100   0.92675805        1            0          100 
   17200   0.93180513        1            0          100 
   17300   0.93726897        1            0          100 
   17400   0.94260597        1            0          100 
   17500   0.94787502        1            0          100 
   17600   0.95302296        1            0          100 
   17700   0.95840502        1            0          100 
   17800   0.96355605        1            0          100 
   17900   0.96881104        1            0          100 
   18000     0.974406        1            0          100 
   18100   0.97965002        1            0          100 
   18200   0.98508406        1            0          100 
   18300   0.99015594        1            0          100 
   18400   0.99535608        1            0          100 
   18500    1.0007961        1            0          100 
   18600     1.006079        1            0          100 
   18700    1.0113909        1            0          100 
   18800    1.0166299        1            0          100 
   18900     1.022294        1            0          100 
   19000    1.0273991        1            0          100 
   19100    1.0326471        1            0          100 
   19200     1.037885        1            0          100 
   19300    1.0428491        1            0          100 
   19400    1.0481019        1            0          100 
   19500     1.053376        1            0          100 
   19600     1.058583        1            0          100 
   19700     1.063673        1            0          100 
   19800    1.0693951        1            0          100 
   19900    1.0745361        1            0          100 
   20000      1.07935        1            0          100 
   20100    1.0848629        1            0          100 
   20200    1.0901771        1            0          100 
   20300    1.0953519        1            0          100 
   20400    1.1002841        1            0          100 
   20500    1.1056371        1            0          100 
   20600     1.110687        1            0          100 
   20700     1.115736        1            0          100 
   20800     1.121664        1            0          100 
   20900    1.1265869        1            0          100 
   21000    1.1318281        1            0          100 
   21100    1.1370881        1            0          100 
   21200     1.142473        1            0          100 
   21300    1.1476109        1            0          100 
   21400    1.1530919        1            0          100 
   21500     1.157908        1            0          100 
   21600      1.16307        1            0          100 
   21700    1.1686649        1            0          100 
   21800    1.1743591        1            0          100 
   21900    1.1792791        1            0          100 
   22000    1.1843181        1            0          100 
   22100       1.1896        1            0          100 
   22200     1.194927        1            0          100 
   22300     1.200016        1            0          100 
   22400    1.2056179        1            0          100 
   22500    1.2110641        1            0          100 
   22600    1.2160101        1            0          100 
   22700    1.2213459        1            0          100 
   22800    1.2265241        1            0          100 
   22900     1.231694        1            0          100 
   23000    1.2370939        1            0          100 
   23100     1.242136        1            0          100 
   23200    1.2473149        1            0          100 
   23300    1.2526641        1            0          100 
   23400     1.258009        1            0          100 
   23500     1.263078        1            0          100 
   23600    1.2684801        1            0          100 
   23700    1.2738869        1            0          100 
   23800    1.2788491        1            0          100 
   23900    1.2845621        1            0          100 
   24000    1.2898619        1            0          100 
   24100    1.2949171        1            0          100 
   24200    1.3003771        1            0          100 
   24300    1.3062551        1            0          100 
   24400    1.3116829        1            0          100 
   24500    1.3167801        1            0          100 
   24600    1.3221879        1            0          100 
   24700    1.3277531        1            0          100 
   24800     1.332767        1            0          100 
   24900    1.3383811        1            0          100 
   25000    1.3435471        1            0          100 
   25100    1.3489239        1            0          100 
   25200    1.3544061        1            0          100 
   25300    1.3598201        1            0          100 
   25400     1.364912        1            0          100 
   25500     1.370193        1            0          100 
   25600    1.3757551        1            0          100 
   25700    1.3806939        1            0          100 
   25800    1.3859241        1            0          100 
   25900    1.3914411        1            0          100 
   26000    1.3964529        1            0          100 
   26100     1.401824        1            0          100 
   26200    1.4069569        1            0          100 
   26300    1.4125969        1            0          100 
   26400    1.4178619        1            0          100 
   26500     1.423604        1            0          100 
   26600     1.430845        1            0          100 
   26700     1.437614        1            0          100 
   26800    1.4433401        1            0          100 
   26900    1.4484811        1            0          100 
   27000     1.454087        1            0          100 
   27100    1.4591851        1            0          100 
   27200     1.464092        1            0          100 
   27300    1.4690681        1            0          100 
   27400     1.474544        1            0          100 
   27500    1.4803071        1            0          100 
   27600     1.485461        1            0          100 
   27700     1.490762        1            0          100 
   27800    1.4958701        1            0          100 
   27900     1.501101        1            0          100 
   28000    1.5065629        1            0          100 
   28100    1.5120771        1            0          100 
   28200     1.517282        1            0          100 
   28300    1.5232589        1            0          100 
   28400    1.5295391        1            0          100 
   28500     1.535917        1            0          100 
   28600    1.5410001        1            0          100 
   28700     1.546349        1            0          100 
   28800    1.5520689        1            0          100 
   28900    1.5578589        1            0          100 
   29000    1.5629921        1            0          100 
   29100     1.568398        1            0          100 
   29200     1.573844        1            0          100 
   29300    1.5791111        1            0          100 
   29400    1.5843539        1            0          100 
   29500    1.5904961        1            0          100 
   29600     1.595571        1            0          100 
   29700    1.6007371        1            0          100 
   29800     1.605979        1            0          100 
   29900     1.611105        1            0          100 
   30000     1.616559        1            0          100 
   30100     1.621989        1            0          100 
   30200     1.627708        1            0          100 
   30300    1.6336319        1            0          100 
   30400    1.6398189        1            0          100 
   30500    1.6449201        1            0          100 
   30600    1.6502061        1            0          100 
   30700    1.6558981        1            0          100 
   30800     1.661299        1            0          100 
   30900     1.666522        1            0          100 
   31000     1.672163        1            0          100 
   31100    1.6777041        1            0          100 
   31200    1.6829081        1            0          100 
   31300     1.688642        1            0          100 
   31400     1.694171        1            0          100 
   31500    1.6994181        1            0          100 
   31600     1.704881        1            0          100 
   31700    1.7106371        1            0          100 
   31800    1.7158241        1            0          100 
   31900     1.722065        1            0          100 
   32000    1.7276371        1            0          100 
   32100    1.7334671        1            0          100 
   32200     1.740237        1            0          100 
   32300    1.7457771        1            0          100 
   32400     1.751189        1            0          100 
   32500    1.7566509        1            0          100 
   32600    1.7619271        1            0          100 
   32700     1.767194        1            0          100 
   32800    1.7727439        1            0          100 
   32900    1.7783961        1            0          100 
   33000    1.7840199        1            0          100 
   33100     1.789959        1            0          100 
   33200    1.7954791        1            0          100 
   33300     1.801101        1            0          100 
   33400     1.806848        1            0          100 
   33500     1.812254        1            0          100 
   33600    1.8177509        1            0          100 
   33700    1.8233311        1            0          100 
   33800    1.8289101        1            0          100 
   33900    1.8343241        1            0          100 
   34000    1.8409309        1            0          100 
   34100    1.8463371        1            0          100 
   34200    1.8517361        1            0          100 
   34300     1.856899        1            0          100 
   34400     1.862623        1            0          100 
   34500    1.8682971        1            0          100 
   34600    1.8735681        1            0          100 
   34700     1.878993        1            0          100 
   34800    1.8843629        1            0          100 
   34900      1.89028        1            0          100 
   35000    1.8958969        1            0          100 
   35100     1.900908        1            0          100 
   35200    1.9064569        1            0          100 
   35300     1.911783        1            0          100 
   35400    1.9168899        1            0          100 
   35500    1.9224181        1            0          100 
   35600     1.927845        1            0          100 
   35700    1.9333391        1            0          100 
   35800    1.9386251        1            0          100 
   35900    1.9443719        1            0          100 
   36000     1.949729        1            0          100 
   36100     1.955204        1            0          100 
   36200    1.9604471        1            0          100 
   36300    1.9655509        1            0          100 
   36400     1.971139        1            0          100 
   36500     1.976217        1            0          100 
   36600    1.9816279        1            0          100 
   36700    1.9869161        1            0          100 
   36800     1.992568        1            0          100 
   36900    1.9979329        1            0          100 
   37000    2.0035691        1            0          100 
   37100     2.008883        1            0          100 
   37200    2.0143709        1            0          100 
   37300     2.019779        1            0          100 
   37400    2.0252581        1            0          100 
   37500    2.0312259        1            0          100 
   37600     2.036895        1            0          100 
   37700     2.042448        1            0          100 
   37800    2.0478389        1            0          100 
   37900     2.053529        1            0          100 
   38000    2.0589399        1            0          100 
   38100    2.0641751        1            0          100 
   38200    2.0696809        1            0          100 
   38300    2.0751829        1            0          100 
   38400    2.0806811        1            0          100 
   38500    2.0865259        1            0          100 
   38600    2.0919759        1            0          100 
   38700     2.097044        1            0          100 
   38800     2.102536        1            0          100 
   38900    2.1077361        1            0          100 
   39000    2.1131711        1            0          100 
   39100      2.11889        1            0          100 
   39200     2.124577        1            0          100 
   39300     2.129673        1            0          100 
   39400    2.1348319        1            0          100 
   39500    2.1401989        1            0          100 
   39600    2.1455021        1            0          100 
   39700      2.15083        1            0          100 
   39800     2.156019        1            0          100 
   39900     2.161361        1            0          100 
   40000     2.166949        1            0          100 
   40100     2.172837        1            0          100 
   40200     2.178277        1            0          100 
   40300      2.18346        1            0          100 
   40400    2.1891761        1            0          100 
   40500     2.194283        1            0          100 
   40600     2.199784        1            0          100 
   40700      2.20541        1            0          100 
   40800    2.2106199        1            0          100 
   40900    2.2157061        1            0          100 
   41000    2.2216411        1            0          100 
   41100    2.2271571        1            0          100 
   41200    2.2323771        1            0          100 
   41300    2.2376029        1            0          100 
   41400     2.243088        1            0          100 
   41500     2.248657        1            0          100 
   41600      2.25403        1            0          100 
   41700     2.259469        1            0          100 
   41800    2.2645299        1            0          100 
   41900     2.270103        1            0          100 
   42000    2.2756071        1            0          100 
   42100    2.2808089        1            0          100 
   42200    2.2862689        1            0          100 
   42300     2.291636        1            0          100 
   42400    2.2966111        1            0          100 
   42500    2.3020699        1            0          100 
   42600    2.3072221        1            0          100 
   42700     2.312566        1            0          100 
   42800    2.3179581        1            0          100 
   42900    2.3235409        1            0          100 
   43000     2.328716        1            0          100 
   43100    2.3339801        1            0          100 
   43200    2.3398321        1            0          100 
   43300    2.3453641        1            0          100 
   43400    2.3506181        1            0          100 
   43500      2.35642        1            0          100 
   43600    2.3622379        1            0          100 
   43700    2.3676031        1            0          100 
   43800     2.373245        1            0          100 
   43900    2.3788061        1            0          100 
   44000    2.3840821        1            0          100 
   44100     2.389657        1            0          100 
   44200      2.39519        1            0          100 
   44300      2.40049        1            0          100 
   44400    2.4062819        1            0          100 
   44500     2.411562        1            0          100 
   44600    2.4169641        1            0          100 
   44700     2.422513        1            0          100 
   44800     2.427932        1            0          100 
   44900    2.4334631        1            0          100 
   45000     2.439055        1            0          100 
   45100    2.4444621        1            0          100 
   45200    2.4495909        1            0          100 
   45300     2.455488        1            0          100 
   45400    2.4609909        1            0          100 
   45500    2.4663851        1            0          100 
   45600     2.472209        1            0          100 
   45700    2.4775891        1            0          100 
   45800    2.4831209        1            0          100 
   45900     2.488817        1            0          100 
   46000     2.494381        1            0          100 
   46100     2.499722        1            0          100 
   46200     2.505332        1            0          100 
   46300      2.51086        1            0          100 
   46400    2.5163751        1            0          100 
   46500     2.522202        1            0          100 
   46600     2.527653        1            0          100 
   46700      2.53319        1            0          100 
   46800    2.5393579        1            0          100 
   46900    2.5446191        1            0          100 
   47000    2.5508711        1            0          100 
   47100    2.5566111        1            0          100 
   47200    2.5624511        1            0          100 
   47300     2.568018        1            0          100 
   47400    2.5739861        1            0          100 
   47500    2.5796449        1            0          100 
   47600    2.5854189        1            0          100 
   47700    2.5912211        1            0          100 
   47800    2.5964861        1            0          100 
   47900    2.6019361        1            0          100 
   48000    2.6072121        1            0          100 
   48100     2.612695        1            0          100 
   48200    2.6182201        1            0          100 
   48300    2.6240561        1            0          100 
   48400     2.629523        1            0          100 
   48500    2.6352551        1            0          100 
   48600    2.6405799        1            0          100 
   48700    2.6458421        1            0          100 
   48800    2.6513381        1            0          100 
   48900    2.6568999        1            0          100 
   49000     2.662519        1            0          100 
   49100     2.667985        1            0          100 
   49200    2.6737201        1            0          100 
   49300    2.6793201        1            0          100 
   49400     2.684855        1            0          100 
   49500      2.69016        1            0          100 
   49600    2.6954701        1            0          100 
   49700    2.7007971        1            0          100 
   49800     2.706521        1            0          100 
   49900    2.7121589        1            0          100 
   50000    2.7180231        1            0          100 
Loop time of 2.71807 on 1 procs for 50000 steps with 1 atoms

94.6% CPU use with 1 MPI tasks x no OpenMP threads

MPI task timing breakdown:
Section |  min time  |  avg time  |  max time  |%varavg| %total
---------------------------------------------------------------
Pair    | 0.016849   | 0.016849   | 0.016849   |   0.0 |  0.62
Neigh   | 0.00012183 | 0.00012183 | 0.00012183 |   0.0 |  0.00
Comm    | 0.010498   | 0.010498   | 0.010498   |   0.0 |  0.39
Output  | 0.19013    | 0.19013    | 0.19013    |   0.0 |  6.99
Modify  | 2.4792     | 2.4792     | 2.4792     |   0.0 | 91.21
Other   |            | 0.02123    |            |       |  0.78

Nlocal:    1 ave 1 max 1 min
Histogram: 1 0 0 0 0 0 0 0 0 0
Nghost:    0 ave 0 max 0 min
Histogram: 1 0 0 0 0 0 0 0 0 0
Neighs:    0 ave 0 max 0 min
Histogram: 1 0 0 0 0 0 0 0 0 0

Total # of neighbors = 0
Ave neighs/atom = 0
Neighbor list builds = 23
Dangerous builds = 0

Please see the log.cite file for references relevant to this simulation

Total wall time: 0:00:02
