atom_style  peri
units       si

###############################################
# Size, contact parameters
###############################################

#Elastic-Plastic Parameters: K G s00 alpha YieldStress
variable    K equal 1000 #Bulk Modulus
variable    G equal 1000 #Shear Modulus
variable    hor equal 100 #Horizon
variable    s00 equal 2000 #Bond Constant
variable    alpha equal 1e6 #Bond Constant
variable    Yield equal 1e6 #Yield Stress

#Lattice:
variable    diam equal 4
variable    rad equal ${diam}*0.5
variable    rad equal 4*0.5
variable    vol equal 4/3*PI*${rad}^3
variable    vol equal 4/3*PI*2^3

variable    kn equal 1e6
variable    damp equal 0.0
variable    coeffFric equal .3
variable    kt equal 0.5*${kn}
variable    kt equal 0.5*1000000
variable    dens equal 900
variable    minmass equal PI*${rad}^3*${dens}*4/3
variable    minmass equal PI*2^3*${dens}*4/3
variable    minmass equal PI*2^3*900*4/3
variable    gravity equal 9.810

variable    omega equal 0.5*10^(-3)
variable    lambda equal 8.0*10^5

variable    waterDensity equal 1017.0

###############################################
# Geometry-related parameters
###############################################

variable    lx equal  50
variable    ly equal  ${lx}
variable    ly equal  50
variable    lz equal  ${lx}
variable    lz equal  50

###############################################
# Create box
###############################################

boundary    f f f
atom_modify	map array

variable    x0 equal -${lx}
variable    x0 equal -50
variable    x1 equal ${lx}
variable    x1 equal 50
variable    x2 equal -${lx}/4
variable    x2 equal -50/4
variable    x3 equal ${lx}/4
variable    x3 equal 50/4
variable    y0 equal -${ly}
variable    y0 equal -50
variable    y1 equal ${ly}
variable    y1 equal 50
variable    y2 equal -${ly}/4
variable    y2 equal -50/4
variable    y3 equal ${ly}/4
variable    y3 equal 50/4
variable    z0 equal -${lz}
variable    z0 equal -50
variable    z1 equal ${lz}
variable    z1 equal 50
variable    z2 equal -${diam}/5
variable    z2 equal -4/5
variable    z3 equal ${diam}/5
variable    z3 equal 4/5

region      boxreg block ${x0} ${x1} ${y0} ${y1} ${z0} ${z1} units box
region      boxreg block -50 ${x1} ${y0} ${y1} ${z0} ${z1} units box
region      boxreg block -50 50 ${y0} ${y1} ${z0} ${z1} units box
region      boxreg block -50 50 -50 ${y1} ${z0} ${z1} units box
region      boxreg block -50 50 -50 50 ${z0} ${z1} units box
region      boxreg block -50 50 -50 50 -50 ${z1} units box
region      boxreg block -50 50 -50 50 -50 50 units box
create_box  1 boxreg
Created orthogonal box = (-50 -50 -50) to (50 50 50)
  1 by 1 by 1 MPI processor grid

lattice     diamond ${diam}
lattice     diamond 4
Lattice spacing in x,y,z = 4 4 4
region      element block ${x2} ${x1} ${y2} ${y3} ${z2} ${z3} units box
region      element block -12.5 ${x1} ${y2} ${y3} ${z2} ${z3} units box
region      element block -12.5 50 ${y2} ${y3} ${z2} ${z3} units box
region      element block -12.5 50 -12.5 ${y3} ${z2} ${z3} units box
region      element block -12.5 50 -12.5 12.5 ${z2} ${z3} units box
region      element block -12.5 50 -12.5 12.5 -0.8 ${z3} units box
region      element block -12.5 50 -12.5 12.5 -0.8 0.8 units box

###############################################
# Create atoms
###############################################

#create_atoms  1 single .1 .1 1
create_atoms  1 region element
Created 202 atoms
  Time spent = 0.00218987 secs
set group all volume   ${vol}
set group all volume   33.5103216382911
  202 settings made for volume
set group all density  ${dens}
set group all density  900
  202 settings made for density
set group all mass     ${minmass}
set group all mass     30159.289474462
  202 settings made for mass

###############################################
# Computes and Property/atom variables
###############################################

variable    velocity atom sqrt(vx*vx+vy*vy+vz*vz)
variable    R        atom (3/4*mass/(${dens}*PI))^(1/3)
variable    R        atom (3/4*mass/(900*PI))^(1/3)

###############################################
# Force Calculations
###############################################

variable V1    atom (z<-${rad})*${vol}
variable V1    atom (z<-2)*${vol}
variable V1    atom (z<-2)*33.5103216382911
variable V2    atom (z>=-${rad})*(z<=${rad})*(1/2*${vol}+PI*(z^3/3-${rad}^2*z))
variable V2    atom (z>=-2)*(z<=${rad})*(1/2*${vol}+PI*(z^3/3-${rad}^2*z))
variable V2    atom (z>=-2)*(z<=2)*(1/2*${vol}+PI*(z^3/3-${rad}^2*z))
variable V2    atom (z>=-2)*(z<=2)*(1/2*33.5103216382911+PI*(z^3/3-${rad}^2*z))
variable V2    atom (z>=-2)*(z<=2)*(1/2*33.5103216382911+PI*(z^3/3-2^2*z))
variable Vdisp atom v_V1+v_V2
variable Fb    atom ${waterDensity}*${gravity}*v_Vdisp
variable Fb    atom 1017*${gravity}*v_Vdisp
variable Fb    atom 1017*9.81*v_Vdisp
variable Fg    atom ${gravity}*mass
variable Fg    atom 9.81*mass
variable Fd    atom (z<${rad})*(-vz*0)
variable Fd    atom (z<2)*(-vz*0)
variable Fztot atom v_Fb-v_Fg+v_Fd

###############################################
# Fixes and pair styles
###############################################

comm_style    tiled
timestep      1e-3

pair_style    peri/eps
pair_coeff    * *      ${K} ${G} ${hor} ${s00} ${alpha} ${Yield}
pair_coeff    * *      1000 ${G} ${hor} ${s00} ${alpha} ${Yield}
pair_coeff    * *      1000 1000 ${hor} ${s00} ${alpha} ${Yield}
pair_coeff    * *      1000 1000 100 ${s00} ${alpha} ${Yield}
pair_coeff    * *      1000 1000 100 2000 ${alpha} ${Yield}
pair_coeff    * *      1000 1000 100 2000 1000000 ${Yield}
pair_coeff    * *      1000 1000 100 2000 1000000 1000000

fix           1 all    nve
fix           2 all    addforce 0 0 v_Fztot

###############################################
# Run settings
###############################################

variable      dumpfreq equal 10
variable      logfreq equal 100

variable      skin equal 0.3*${diam}
variable      skin equal 0.3*4
neighbor      ${skin} bin
neighbor      1.2 bin

comm_modify	  vel yes cutoff ${diam}
comm_modify	  vel yes cutoff 4

thermo_style	custom step cpu atoms ke lx
thermo_modify	flush yes lost warn
thermo        ${logfreq}
thermo        100

#dump 1        all custom ${dumpfreq} ../data/DUMP/3D_peri.dump id type volume               mass x y z v_velocity

dump 2        all custom ${dumpfreq} ../data/DUMP/3D_peri.dump id type x y z v_R
dump 2        all custom 10 ../data/DUMP/3D_peri.dump id type x y z v_R

run		50000
Neighbor list info ...
  update every 1 steps, delay 10 steps, check yes
  max neighbors/atom: 2000, page size: 100000
  master list distance cutoff = 101.2
  ghost atom cutoff = 101.2
  binsize = 50.6, bins = 2 2 2
  2 neighbor lists, perpetual/occasional/extra = 1 1 0
  (1) pair peri/eps, perpetual
      attributes: half, newton on
      pair build: half/bin/atomonly/newton
      stencil: half/bin/3d/newton
      bin: standard
  (2) fix PERI_NEIGH, occasional
      attributes: full, newton on
      pair build: full/bin/atomonly
      stencil: full/bin/3d
      bin: standard
Peridynamic bonds:
  total # of bonds = 40602
  bonds/atom = 201
Per MPI rank memory allocation (min/avg/max) = 69.79 | 69.79 | 69.79 Mbytes
Step CPU Atoms KinEng Lx 
       0            0      202            0          100 
     100   0.28922105      202    547057.01          100 
     200   0.57151794      202    2098546.7          100 
     300   0.85197997      202    4400670.2          100 
     400     1.132021      202    7080337.2          100 
     500    1.4133799      202      9714906          100 
     600    1.6952479      202     11914799          100 
     700    1.9755311      202     13399167          100 
     800    2.2562151      202     14042902          100 
     900     2.538377      202     13881524          100 
    1000    2.8198929      202     13076026          100 
    1100     3.100955      202     11854352          100 
    1200     3.382333      202     10451824          100 
    1300     3.663357      202    9064696.5          100 
    1400     3.943327      202    7773974.1          100 
    1500     4.225873      202    6582334.3          100 
    1600    4.5089691      202    5489777.1          100 
    1700    4.7910891      202    4496302.4          100 
    1800    5.0726299      202    3601910.3          100 
    1900     5.354208      202    2806600.7          100 
    2000    5.6380091      202    2110373.7          100 
    2100     5.918987      202    1513229.3          100 
    2200    6.2064369      202    1015167.4          100 
    2300    6.4899609      202    616188.02          100 
    2400    6.7770889      202    316291.23          100 
    2500    7.0603559      202    115476.99          100 
    2600     7.343024      202      13745.3          100 
    2700      7.62325      202    11096.168          100 
    2800    7.9035909      202    107529.59          100 
    2900    8.1846199      202    303045.57          100 
    3000    8.4652181      202     597644.1          100 
    3100    8.7453151      202    991325.19          100 
    3200    9.0259881      202    1484088.8          100 
    3300    9.3071449      202      2075935          100 
    3400    9.5871501      202    2766863.8          100 
    3500     9.867835      202    3556875.1          100 
    3600    10.148251      202    4445968.9          100 
    3700    10.432148      202    5434145.3          100 
    3800    10.716393      202    6521404.3          100 
    3900     10.99874      202    7707745.8          100 
    4000    11.278959      202    8993169.9          100 
    4100    11.559343      202     10375820          100 
    4200    11.842464      202     11781947          100 
    4300    12.123207      202     13019077          100 
    4400    12.404195      202     13852902          100 
    4500    12.684346      202     14053667          100 
    4600    12.964614      202     13455210          100 
    4700    13.245436      202     12014114          100 
    4800    13.525438      202    9846623.8          100 
    4900    13.805671      202    7226111.6          100 
    5000    14.086039      202    4538089.6          100 
    5100    14.366596      202    2205557.2          100 
    5200    14.646842      202    606201.33          100 
    5300    14.928243      202    1586.0402          100 
    5400    15.208538      202    490824.69          100 
    5500    15.489574      202    1993711.8          100 
    5600    15.770377      202    4264342.6          100 
    5700    16.050646      202    6934425.8          100 
    5800    16.331098      202    9581918.6          100 
    5900      16.6121      202     11813400          100 
    6000    16.892123      202     13340680          100 
    6100    17.172414      202     14029803          100 
    6200     17.45301      202     13908287          100 
    6300    17.733848      202     13131785          100 
    6400    18.014408      202     11926249          100 
    6500    18.294955      202     10527896          100 
    6600    18.575098      202    9136506.3          100 
    6700    18.855899      202    7840485.7          100 
    6800    19.136237      202    6643547.7          100 
    6900     19.41639      202    5545692.2          100 
    7000    19.696572      202    4546919.3          100 
    7100    19.979847      202    3647228.9          100 
    7200    20.263986      202      2846621          100 
    7300    20.545904      202    2145095.8          100 
    7400    20.826114      202      1542653          100 
    7500    21.106451      202    1039292.9          100 
    7600    21.386751      202    635015.26          100 
    7700    21.667493      202     329820.2          100 
    7800    21.947984      202     123707.7          100 
    7900    22.227711      202    16677.746          100 
    8000    22.508323      202    8730.3514          100 
    8100    22.790191      202    99865.511          100 
    8200    23.071704      202    290083.22          100 
    8300     23.35179      202    579383.49          100 
    8400    23.631939      202    967766.32          100 
    8500    23.912381      202    1455231.7          100 
    8600    24.192559      202    2041779.6          100 
    8700    24.473124      202    2727410.1          100 
    8800    24.753168      202    3512123.2          100 
    8900    25.035132      202    4395918.7          100 
    9000    25.317605      202    5378796.9          100 
    9100    25.597775      202    6460757.6          100 
    9200    25.878454      202    7641800.9          100 
    9300    26.159072      202    8921926.7          100 
    9400    26.440055      202     10299910          100 
    9500    26.720318      202     11709069          100 
    9600    27.000558      202     12960973          100 
    9700    27.281134      202     13822456          100 
    9800    27.561075      202     14062117          100 
    9900    27.841194      202     13508805          100 
   10000    28.121674      202     12111313          100 
   10100    28.402451      202    9977018.6          100 
   10200    28.687868      202    7371683.8          100 
   10300    28.970174      202    4676536.6          100 
   10400    29.250176      202    2314692.5          100 
   10500    29.533686      202    668229.55          100 
   10600    29.820645      202    6343.4067          100 
   10700    30.103484      202    437531.11          100 
   10800    30.384194      202      1891102          100 
   10900    30.664067      202    4129170.4          100 
   11000     30.94435      202    6788442.9          100 
   11100    31.224918      202    9447715.7          100 
   11200     31.50603      202     11709949          100 
   11300    31.794152      202     13279756          100 
   11400    32.078033      202     14014356          100 
   11500    32.361926      202     13933161          100 
   11600    32.645199      202     13186315          100 
   11700    32.927795      202     11997604          100 
   11800    33.210377      202     10604008          100 
   11900    33.493114      202    9208599.5          100 
   12000    33.775848      202    7907280.7          100 
   12100    34.058779      202    6705044.3          100 
   12200    34.341599      202    5601890.6          100 
   12300    34.624728      202    4597819.4          100 
   12400    34.907149      202    3692830.7          100 
   12500    35.189885      202    2886924.6          100 
   12600    35.472688      202    2180101.1          100 
   12700    35.756257      202    1572360.1          100 
   12800      36.0377      202    1063701.7          100 
   12900    36.317205      202    654125.81          100 
   13000     36.59713      202    343632.49          100 
   13100    36.877683      202    132221.72          100 
   13200    37.159965      202    19893.508          100 
   13300    37.441255      202    6647.8502          100 
   13400    37.721792      202    92484.746          100 
   13500    38.002587      202     277404.2          100 
   13600    38.283223      202     561406.2          100 
   13700    38.564054      202    944490.76          100 
   13800    38.844106      202    1426657.9          100 
   13900    39.125382      202    2007907.5          100 
   14000    39.406857      202    2688239.8          100 
   14100    39.687379      202    3467654.5          100 
   14200    39.970223      202    4346151.9          100 
   14300    40.254349      202    5323731.8          100 
   14400    40.539974      202    6400394.2          100 
   14500     40.82152      202    7576139.2          100 
   14600    41.101713      202    8850966.7          100 
   14700    41.381828      202     10224119          100 
   14800    41.662067      202     11635750          100 
   14900    41.942266      202     12901754          100 
   15000    42.222491      202     13790217          100 
   15100    42.503276      202     14068271          100 
   15200    42.784897      202     13559948          100 
   15300    43.065888      202     12206366          100 
   15400    43.346104      202     10106038          100 
   15500    43.626578      202    7516988.9          100 
   15600    43.906349      202    4815946.9          100 
   15700    44.186389      202    2425900.9          100 
   15800    44.466423      202    733112.19          100 
   15900    44.746843      202    14269.838          100 
   16000    45.026937      202    387201.61          100 
   16100    45.307569      202    1790766.1          100 
   16200    45.587734      202    3995216.9          100 
   16300     45.86771      202    6642454.1          100 
   16400    46.147738      202    9312352.5          100 
   16500      46.4288      202     11604481          100 
   16600    46.708809      202     13216405          100 
   16700    46.988838      202     13996544          100 
   16800    47.269538      202     13956114          100 
   16900    47.549908      202     13239579          100 
   17000     47.82965      202     12068381          100 
   17100    48.109305      202     10680134          100 
   17200    48.389712      202      9280976          100 
   17300    48.670492      202    7974358.9          100 
   17400    48.950144      202    6766824.3          100 
   17500    49.230296      202    5658372.3          100 
   17600    49.511763      202    4649002.8          100 
   17700    49.795728      202    3738715.9          100 
   17800    50.079708      202    2927511.6          100 
   17900    50.361569      202    2215389.8          100 
   18000    50.644606      202    1602350.5          100 
   18100    50.924541      202    1088393.8          100 
   18200    51.204881      202    673519.68          100 
   18300    51.486112      202    357728.09          100 
   18400    51.767619      202    141019.06          100 
   18500    52.047792      202    23392.586          100 
   18600    52.328471      202    4848.6641          100 
   18700    52.608948      202    85387.297          100 
   18800    52.892732      202    265008.48          100 
   18900    53.172571      202    543712.23          100 
   19000      53.4528      202    921498.52          100 
   19100    53.733739      202    1398367.4          100 
   19200     54.01465      202    1974318.8          100 
   19300    54.295187      202    2649352.7          100 
   19400    54.575885      202    3423469.3          100 
   19500    54.855837      202    4296668.3          100 
   19600    55.136183      202    5268949.9          100 
   19700    55.416585      202    6340314.1          100 
   19800    55.697054      202    7510760.9          100 
   19900    55.977458      202    8780290.1          100 
   20000    56.257337      202     10148473          100 
   20100    56.537413      202     11562026          100 
   20200    56.817768      202     12841455          100 
   20300    57.098344      202     13756220          100 
   20400    57.378614      202     14072148          100 
   20500    57.658586      202     13608634          100 
   20600    57.939241      202     12299245          100 
   20700    58.219921      202     10233631          100 
   20800    58.500472      202    7661962.5          100 
   20900    58.782624      202    4956255.4          100 
   21000    59.068515      202      2539130          100 
   21100    59.348935      202     800818.4          100 
   21200    59.629441      202    25361.565          100 
   21300    59.909381      202    339860.09          100 
   21400    60.192712      202    1692751.6          100 
   21500    60.477334      202    3862544.8          100 
   21600    60.760654      202    6496525.3          100 
   21700    61.041411      202    9175884.9          100 
   21800    61.323278      202     11497030          100 
   21900    61.603269      202     13150635          100 
   22000     61.88366      202     13976353          100 
   22100    62.164756      202     13977115          100 
   22200    62.445116      202     13291539          100 
   22300     62.72521      202     12138546          100 
   22400    63.006972      202     10756245          100 
   22500    63.287683      202    9353635.8          100 
   22600    63.568412      202    8041720.4          100 
   22700    63.848699      202    6828887.6          100 
   22800    64.128974      202    5715137.3          100 
   22900    64.409239      202    4700469.6          100 
   23000    64.689161      202    3784884.4          100 
   23100     64.96952      202    2968381.8          100 
   23200    65.250645      202    2250961.7          100 
   23300    65.531234      202    1632624.2          100 
   23400     65.81184      202    1113369.3          100 
   23500    66.092435      202    693196.86          100 
   23600    66.372946      202    372107.01          100 
   23700    66.653245      202    150099.72          100 
   23800    66.933842      202    27174.978          100 
   23900    67.214395      202    3332.7933          100 
   24000    67.495571      202    78573.163          100 
   24100    67.775867      202    252896.09          100 
   24200    68.056365      202    526301.56          100 
   24300    68.336613      202     898789.6          100 
   24400    68.617079      202    1370360.2          100 
   24500    68.897002      202    1941013.3          100 
   24600    69.177149      202      2610749          100 
   24700    69.457053      202    3379567.3          100 
   24800    69.739666      202    4247468.1          100 
   24900    70.024676      202    5214451.4          100 
   25000    70.308484      202    6280517.4          100 
   25100    70.589273      202    7445665.8          100 
   25200    70.869352      202    8709896.8          100 
   25300    71.149141      202     10072998          100 
   25400    71.429428      202     11487929          100 
   25500    71.712737      202     12780116          100 
   25600    71.993434      202     13720497          100 
   25700    72.273388      202     14073768          100 
   25800    72.553964      202     13654864          100 
   25900    72.833738      202     12389922          100 
   26000    73.113676      202     10359746          100 
   26100     73.39376      202    7806540.4          100 
   26200    73.673948      202    5097397.2          100 
   26300    73.954062      202      2654326          100 
   26400    74.233547      202    871316.02          100 
   26500    74.514161      202    39613.314          100 
   26600     74.79454      202    295529.09          100 
   26700    75.074693      202      1597105          100 
   26800    75.354992      202    3731216.2          100 
   26900    75.635217      202    6350722.6          100 
   27000    75.916768      202    9038369.9          100 
   27100    76.197155      202     11387634          100 
   27200    76.477193      202     13082458          100 
   27300    76.757112      202     13953770          100 
   27400    77.037639      202     13996135          100 
   27500    77.318099      202     13342159          100 
   27600    77.604045      202     12208062          100 
   27700     77.89937      202     10832314          100 
   27800    78.193649      202      9426579          100 
   27900    78.489082      202    8109365.3          100 
   28000    78.781494      202    6891234.2          100 
   28100    79.073951      202    5772185.7          100 
   28200    79.364301      202    4752219.7          100 
   28300    79.658543      202    3831336.2          100 
   28400     79.95086      202    3009535.3          100 
   28500    80.244166      202      2286817          100 
   28600    80.545377      202    1663181.2          100 
   28700    80.845716      202      1138628          100 
   28800    81.147236      202    713157.36          100 
   28900    81.437393      202    386769.25          100 
   29000    81.726915      202    159463.69          100 
   29100       82.017      202    31240.686          100 
   29200    82.307727      202    2100.2376          100 
   29300    82.598129      202    72042.344          100 
   29400    82.893898      202       241067          100 
   29500    83.193652      202    509174.22          100 
   29600    83.491732      202    876363.99          100 
   29700    83.790579      202    1342636.3          100 
   29800    84.088879      202    1907991.2          100 
   29900    84.391434      202    2572428.6          100 
   30000    84.688585      202    3335948.6          100 
   30100    84.996901      202    4198551.2          100 
   30200    85.298115      202    5160236.2          100 
   30300    85.599577      202    6221003.9          100 
   30400    85.898993      202    7380854.1          100 
   30500    86.195294      202    8639786.9          100 
   30600    86.493971      202      9997717          100 
   30700    86.793992      202     11413493          100 
   30800    87.096242      202     12717773          100 
   30900    87.400941      202     13683084          100 
   31000    87.704571      202     14073153          100 
   31100    88.011132      202     13698636          100 
   31200    88.306142      202     12478370          100 
   31300     88.60989      202     10484336          100 
   31400    88.922428      202    7950658.9          100 
   31500    89.230589      202    5239306.8          100 
   31600    89.524779      202    2771434.6          100 
   31700    89.825487      202    944571.54          100 
   31800    90.123689      202    57018.311          100 
   31900    90.424773      202    254229.66          100 
   32000    90.720278      202    1503871.7          100 
   32100     91.02901      202    3601292.8          100 
   32200    91.352332      202    6205112.2          100 
   32300    91.677488      202    8899865.1          100 
   32400    91.997641      202     11276330          100 
   32500    92.299972      202     13011885          100 
   32600    92.603761      202     13928783          100 
   32700    92.912375      202     14013143          100 
   32800     93.21309      202     13391401          100 
   32900    93.493513      202     12276895          100 
   33000    93.773715      202     10908312          100 
   33100    94.053865      202    9499805.4          100 
   33200    94.335423      202    8177293.5          100 
   33300    94.638443      202    6953864.1          100 
   33400    94.948205      202    5829517.3          100 
   33500    95.241739      202    4804253.1          100 
   33600    95.537883      202    3878071.4          100 
   33700    95.834706      202    3050972.2          100 
   33800    96.137991      202    2322955.6          100 
   33900    96.437777      202    1694021.6          100 
   34000    96.737108      202    1164170.1          100 
   34100    97.033608      202    733401.17          100 
   34200    97.332534      202     401714.8          100 
   34300    97.632568      202    169110.98          100 
   34400    97.933672      202    35589.709          100 
   34500    98.232849      202    1150.9972          100 
   34600    98.536258      202     65794.84          100 
   34700    98.840626      202    229521.24          100 
   34800    99.148043      202    492330.19          100 
   34900    99.445345      202    854221.69          100 
   35000    99.736435      202    1315195.8          100 
   35100     100.0407      202    1875252.4          100 
   35200     100.3447      202    2534391.5          100 
   35300    100.64634      202    3292613.3          100 
   35400    100.97643      202    4149917.5          100 
   35500    101.28984      202    5106304.4          100 
   35600    101.57775      202    6161773.8          100 
   35700    101.86613      202    7316325.7          100 
   35800    102.15163      202    8569960.2          100 
   35900    102.43872      202    9922654.4          100 
   36000    102.73134      202     11338748          100 
   36100    103.03239      202     12654463          100 
   36200    103.33434      202     13644016          100 
   36300    103.63185      202     14070326          100 
   36400    103.93669      202     13739953          100 
   36500    104.23359      202     12564567          100 
   36600    104.53109      202     10607351          100 
   36700    104.83399      202      8094255          100 
   36800    105.13101      202    5381918.4          100 
   36900    105.43059      202    2890400.3          100 
   37000    105.73053      202    1020550.2          100 
   37100    106.02812      202    77568.279          100 
   37200    106.32553      202    215981.44          100 
   37300    106.63064      202    1413095.8          100 
   37400    106.94206      202    3472835.6          100 
   37500    107.24259      202    6059760.4          100 
   37600    107.54737      202    8760428.8          100 
   37700    107.84012      202     11163158          100 
   37800    108.13963      202     12938932          100 
   37900    108.44281      202     13901382          100 
   38000    108.74457      202     14028112          100 
   38100    109.05142      202     13439229          100 
   38200    109.35359      202     12345007          100 
   38300    109.67991      202     10984208          100 
   38400    109.97876      202    9573315.2          100 
   38500    110.27942      202      8245505          100 
   38600    110.59849      202    7016777.4          100 
   38700    110.92577      202    5887132.3          100 
   38800    111.23395      202    4856569.8          100 
   38900    111.55079      202    3925089.8          100 
   39000    111.86739      202    3092692.4          100 
   39100    112.16273      202    2359377.5          100 
   39200    112.45712      202    1725145.2          100 
   39300     112.7556      202    1189995.5          100 
   39400    113.05405      202     753928.3          100 
   39500    113.35103      202    416943.66          100 
   39600    113.64848      202    179041.58          100 
   39700    113.94749      202    40222.047          100 
   39800    114.25188      202    485.07197          100 
   39900    114.55279      202    59830.651          100 
   40000    114.84734      202    218258.79          100 
   40100    115.14749      202    475769.47          100 
   40200    115.44371      202    832362.72          100 
   40300    115.73541      202    1288038.5          100 
   40400    116.03688      202    1842796.9          100 
   40500    116.33882      202    2496637.8          100 
   40600    116.63775      202    3249561.2          100 
   40700    116.92654      202    4101567.2          100 
   40800    117.22243      202    5052655.8          100 
   40900    117.52414      202    6102826.9          100 
   41000    117.82571      202    7252080.6          100 
   41100     118.1266      202    8500416.8          100 
   41200    118.42742      202    9847833.5          100 
   41300    118.71844      202     11263729          100 
   41400     119.0165      202     12590224          100 
   41500    119.30714      202     13603326          100 
   41600    119.60023      202     14065310          100 
   41700    119.89799      202     13778816          100 
   41800    120.19775      202     12648487          100 
   41900    120.49394      202     10728744          100 
   42000    120.79707      202    8237265.7          100 
   42100    121.11629      202    5525166.2          100 
   42200    121.40778      202    3011167.1          100 
   42300    121.73827      202    1099215.8          100 
   42400    122.03476      202    101253.45          100 
   42500    122.33113      202    180802.61          100 
   42600    122.62265      202    1324820.5          100 
   42700    122.90311      202      3345905          100 
   42800    123.18364      202    5914733.5          100 
   42900    123.46363      202    8620120.3          100 
   43000    123.74371      202     11048158          100 
   43100    124.02452      202     12863612          100 
   43200    124.30477      202     13871555          100 
   43300    124.58523      202     14041012          100 
   43400    124.86658      202     13485605          100 
   43500    125.14811      202     12412364          100 
   43600    125.42873      202     11059975          100 
   43700    125.70893      202    9647108.3          100 
   43800    125.98899      202    8313999.8          100 
   43900    126.26921      202    7079973.9          100 
   44000    126.54954      202    5945030.6          100 
   44100    126.82976      202    4909169.8          100 
   44200    127.10957      202    3972391.6          100 
   44300    127.39009      202    3134695.9          100 
   44400    127.67071      202    2396082.8          100 
   44500    127.95038      202    1756552.2          100 
   44600    128.23026      202    1216104.2          100 
   44700    128.51044      202    774738.74          100 
   44800    128.79044      202    432455.84          100 
   44900    129.07053      202    189255.49          100 
   45000    129.35098      202      45137.7          100 
   45100    129.63254      202    102.46196          100 
   45200    129.91257      202    54149.778          100 
   45300    130.19364      202    207279.65          100 
   45400    130.47503      202    459492.07          100 
   45500    130.75869      202    810787.05          100 
   45600     131.0427      202    1261164.6          100 
   45700    131.32525      202    1810624.7          100 
   45800    131.60541      202    2459167.3          100 
   45900    131.88664      202    3206792.5          100 
   46000    132.16632      202    4053500.3          100 
   46100     132.4471      202    4999290.6          100 
   46200     132.7269      202    6044163.4          100 
   46300    133.00709      202    7188118.8          100 
   46400    133.28685      202    8431156.8          100 
   46500    133.56798      202    9773277.3          100 
   46600     133.8481      202     11188465          100 
   46700    134.12819      202     12525093          100 
   46800    134.40878      202     13561052          100 
   46900    134.69028      202     14058129          100 
   47000     134.9709      202     13815230          100 
   47100    135.25112      202     12730110          100 
   47200    135.53149      202     10848469          100 
   47300    135.81238      202      8379629          100 
   47400    136.09274      202    5668984.2          100 
   47500    136.37241      202      3133678          100 
   47600    136.65241      202      1180531          100 
   47700     136.9327      202    128062.56          100 
   47800    137.21346      202    148709.91          100 
   47900    137.49352      202    1239087.8          100 
   48000    137.77399      202    3220560.6          100 
   48100    138.05466      202    5770097.7          100 
   48200    138.33524      202    8478999.4          100 
   48300    138.61586      202     10931372          100 
   48400    138.89602      202     12785943          100 
   48500     139.1761      202     13839296          100 
   48600    139.45626      202     14051818          100 
   48700     139.7363      202     13530494          100 
   48800    140.01651      202     12478927          100 
   48900     140.2968      202     11135581          100 
   49000    140.57653      202    9721184.6          100 
   49100    140.85675      202    8382777.9          100 
   49200    141.13744      202    7143453.8          100 
   49300    141.42111      202    6003212.2          100 
   49400    141.70514      202    4962053.1          100 
   49500    141.98661      202    4019976.6          100 
   49600    142.26712      202    3176982.7          100 
   49700    142.54648      202    2433071.3          100 
   49800       142.83      202    1788242.5          100 
   49900    143.11109      202    1242496.2          100 
   50000    143.39101      202     795832.5          100 
Loop time of 143.391 on 1 procs for 50000 steps with 202 atoms

99.1% CPU use with 1 MPI tasks x no OpenMP threads

MPI task timing breakdown:
Section |  min time  |  avg time  |  max time  |%varavg| %total
---------------------------------------------------------------
Pair    | 140.11     | 140.11     | 140.11     |   0.0 | 97.71
Neigh   | 0.0050697  | 0.0050697  | 0.0050697  |   0.0 |  0.00
Comm    | 0.022162   | 0.022162   | 0.022162   |   0.0 |  0.02
Output  | 0.84959    | 0.84959    | 0.84959    |   0.0 |  0.59
Modify  | 2.3229     | 2.3229     | 2.3229     |   0.0 |  1.62
Other   |            | 0.08623    |            |       |  0.06

Nlocal:    202 ave 202 max 202 min
Histogram: 1 0 0 0 0 0 0 0 0 0
Nghost:    0 ave 0 max 0 min
Histogram: 1 0 0 0 0 0 0 0 0 0
Neighs:    20301 ave 20301 max 20301 min
Histogram: 1 0 0 0 0 0 0 0 0 0
FullNghs:  40602 ave 40602 max 40602 min
Histogram: 1 0 0 0 0 0 0 0 0 0

Total # of neighbors = 40602
Ave neighs/atom = 201
Neighbor list builds = 95
Dangerous builds = 0

Please see the log.cite file for references relevant to this simulation

Total wall time: 0:02:23
