atom_style  peri
units       si

###############################################
# Physical Constants
###############################################

include constant.include
variable c equal 67500.00000000000000000000000000000000
variable hor equal 1.00000000000000000000000000000000
variable s00 equal 0.50000000000000000000000000000000
variable alpha equal 0.90000000000000002220446049250313
variable dens equal 900.00000000000000000000000000000000
variable waterDensity equal 1017.00000000000000000000000000000000
variable airDensity equal 1.00000000000000000000000000000000
variable gravity equal 9.81000000000000049737991503207013
variable Cdo equal 10.00000000000000000000000000000000
variable Cda equal 10.00000000000000000000000000000000

###############################################
# Geometry-related parameters
###############################################

include simbox.include
boundary f f f
atom_modify map array
variable x0 equal 0.00000000000000000000000000000000
variable x1 equal 30.00000000000000000000000000000000
variable y0 equal 0.00000000000000000000000000000000
variable y1 equal 30.00000000000000000000000000000000
variable z0 equal -20.00000000000000000000000000000000
variable z1 equal 20.00000000000000000000000000000000
region boxreg block ${x0} ${x1} ${y0} ${y1} ${z0} ${z1} units box
region boxreg block 0 ${x1} ${y0} ${y1} ${z0} ${z1} units box
region boxreg block 0 30 ${y0} ${y1} ${z0} ${z1} units box
region boxreg block 0 30 0 ${y1} ${z0} ${z1} units box
region boxreg block 0 30 0 30 ${z0} ${z1} units box
region boxreg block 0 30 0 30 -20 ${z1} units box
region boxreg block 0 30 0 30 -20 20 units box
create_box 1 boxreg
Created orthogonal box = (0 0 -20) to (30 30 20)
  1 by 1 by 1 MPI processor grid

###############################################
# Create atoms
###############################################

include atom.include
lattice sc 1.00000000000000000000000000000000
Lattice spacing in x,y,z = 1 1 1
region slab1 block 5.00000000000000000000000000000000 14.50000000000000000000000000000000 5.00000000000000000000000000000000 25.00000000000000000000000000000000 -1.00000000000000000000000000000000 -1.00000000000000000000000000000000 units box
region slab2 block 15.50000000000000000000000000000000 30.00000000000000000000000000000000 5.00000000000000000000000000000000 25.00000000000000000000000000000000 -2.00000000000000000000000000000000 -1.00000000000000000000000000000000 units box
create_atoms 1 region slab1
Created 210 atoms
  Time spent = 0.00185204 secs
create_atoms 1 region slab2
Created 588 atoms
  Time spent = 0.00142193 secs
group 1 region slab1
210 atoms in group 1
group 2 region slab2
588 atoms in group 2
set atom 1 volume 0.52289725349912907770288938991143
  1 settings made for volume
set atom 1 mass 470.60752814921619346932857297360897
  1 settings made for mass
set atom 2 volume 0.52374035778183802847252081846818
  1 settings made for volume
set atom 2 mass 471.36632200365420430898666381835938
  1 settings made for mass
set atom 3 volume 0.52212881102926211873693773668492
  1 settings made for volume
set atom 3 mass 469.91592992633593439677497372031212
  1 settings made for mass
set atom 4 volume 0.52704242611044749278192966812639
  1 settings made for volume
set atom 4 mass 474.33818349940275993503746576607227
  1 settings made for mass
set atom 5 volume 0.52383902257690750925434031159966
  1 settings made for volume
set atom 5 mass 471.45512031921674633849761448800564
  1 settings made for mass
set atom 6 volume 0.52550562800889433212603307765676
  1 settings made for volume
set atom 6 mass 472.95506520800489624889451079070568
  1 settings made for mass
set atom 7 volume 0.51899977739396196962928797802306
  1 settings made for volume
set atom 7 mass 467.09979965456579975580098107457161
  1 settings made for mass
set atom 8 volume 0.52727689104406849640582777283271
  1 settings made for volume
set atom 8 mass 474.54920193966165697929682210087776
  1 settings made for mass
set atom 9 volume 0.52188837453308123404127627509297
  1 settings made for volume
set atom 9 mass 469.69953707977310841670259833335876
  1 settings made for mass
set atom 10 volume 0.52745821125087100078587809548480
  1 settings made for volume
set atom 10 mass 474.71239012578388383190031163394451
  1 settings made for mass
set atom 11 volume 0.52020150283291077819569636631059
  1 settings made for volume
set atom 11 mass 468.18135254961970304066198877990246
  1 settings made for mass
set atom 12 volume 0.52393789012087943479656360068475
  1 settings made for volume
set atom 12 mass 471.54410110879149442553170956671238
  1 settings made for mass
set atom 13 volume 0.51588119786247177422922050027410
  1 settings made for volume
set atom 13 mass 464.29307807622461723440210334956646
  1 settings made for mass
set atom 14 volume 0.52162604711418947278644964171690
  1 settings made for volume
set atom 14 mass 469.46344240277051085286075249314308
  1 settings made for mass
set atom 15 volume 0.52605466946162426911115517214057
  1 settings made for volume
set atom 15 mass 473.44920251546182043966837227344513
  1 settings made for mass
set atom 16 volume 0.52442262448304377553398580857902
  1 settings made for volume
set atom 16 mass 471.98036203473941441188799217343330
  1 settings made for mass
set atom 17 volume 0.52724269599747686232404930706252
  1 settings made for volume
set atom 17 mass 474.51842639772917209484148770570755
  1 settings made for mass
set atom 18 volume 0.52510632635697962466991839391994
  1 settings made for volume
set atom 18 mass 472.59569372128163422530633397400379
  1 settings made for mass
set atom 19 volume 0.51970550297342288370572305211681
  1 settings made for volume
set atom 19 mass 467.73495267608058156838524155318737
  1 settings made for mass
set atom 20 volume 0.52495137678013292781287191246520
  1 settings made for volume
set atom 20 mass 472.45623910211963902838760986924171
  1 settings made for mass
set atom 21 volume 0.52346644963477484413516549466294
  1 settings made for volume
set atom 21 mass 471.11980467129734506670502014458179
  1 settings made for mass
set atom 22 volume 0.52927606400498361516326895070961
  1 settings made for volume
set atom 22 mass 476.34845760448524742969311773777008
  1 settings made for mass
set atom 23 volume 0.52526486580873410492387165504624
  1 settings made for volume
set atom 23 mass 472.73837922786071885639103129506111
  1 settings made for mass
set atom 24 volume 0.52670084144208295651168327822234
  1 settings made for volume
set atom 24 mass 474.03075729787468617359991185367107
  1 settings made for mass
set atom 25 volume 0.52513440051756232751500874655903
  1 settings made for volume
set atom 25 mass 472.62096046580609254306182265281677
  1 settings made for mass
set atom 26 volume 0.52220801065690181097522781783482
  1 settings made for volume
set atom 26 mass 469.98720959121163787131081335246563
  1 settings made for mass
set atom 27 volume 0.52585475564558470384923793972121
  1 settings made for volume
set atom 27 mass 473.26928008102623834929545409977436
  1 settings made for mass
set atom 28 volume 0.52609143129827917739760323456721
  1 settings made for volume
set atom 28 mass 473.48228816845124811152345500886440
  1 settings made for mass
set atom 29 volume 0.52653617987601453176438326408970
  1 settings made for volume
set atom 29 mass 473.88256188841307903203414753079414
  1 settings made for mass
set atom 30 volume 0.52286934073080748586193067239947
  1 settings made for volume
set atom 30 mass 470.58240665772672173261526040732861
  1 settings made for mass
set atom 31 volume 0.51914326933699106447761550953146
  1 settings made for volume
set atom 31 mass 467.22894240329196691163815557956696
  1 settings made for mass
set atom 32 volume 0.52560193659008025424128618396935
  1 settings made for volume
set atom 32 mass 473.04174293107223547849571332335472
  1 settings made for mass
set atom 33 volume 0.52196500530959832886424010212068
  1 settings made for volume
set atom 33 mass 469.76850477863848709603189490735531
  1 settings made for mass
set atom 34 volume 0.52745095831180588419329069438390
  1 settings made for volume
set atom 34 mass 474.70586248062528511582058854401112
  1 settings made for mass
set atom 35 volume 0.52204072367171738822122506462620
  1 settings made for volume
set atom 35 mass 469.83665130454562586237443611025810
  1 settings made for mass
set atom 36 volume 0.52800150888476315991226783808088
  1 settings made for volume
set atom 36 mass 475.20135799628684480921947397291660
  1 settings made for mass
set atom 37 volume 0.52924171814476939079696649059770
  1 settings made for volume
set atom 37 mass 476.31754633029242995689855888485909
  1 settings made for mass
set atom 38 volume 0.52046042143957649273033894132823
  1 settings made for volume
set atom 38 mass 468.41437929561885766815976239740849
  1 settings made for mass
set atom 39 volume 0.52537782345641848014139441147563
  1 settings made for volume
set atom 39 mass 472.84004111077661036688368767499924
  1 settings made for mass
set atom 40 volume 0.52671264454285171563441281250562
  1 settings made for volume
set atom 40 mass 474.04138008856654096234706230461597
  1 settings made for mass
set atom 41 volume 0.52466798919171364623537101579132
  1 settings made for volume
set atom 41 mass 472.20119027254230559265124611556530
  1 settings made for mass
set atom 42 volume 0.52070028773256538112690350317280
  1 settings made for volume
set atom 42 mass 468.63025895930883280016132630407810
  1 settings made for mass
set atom 43 volume 0.51941175324962318704535846336512
  1 settings made for volume
set atom 43 mass 467.47057792466085857086000032722950
  1 settings made for mass
set atom 44 volume 0.52745870467679456528031778361765
  1 settings made for volume
set atom 44 mass 474.71283420911510120276943780481815
  1 settings made for mass
set atom 45 volume 0.52476577329892426515556280719466
  1 settings made for volume
set atom 45 mass 472.28919596903182309688418172299862
  1 settings made for mass
set atom 46 volume 0.51865389682434193119320298137609
  1 settings made for volume
set atom 46 mass 466.78850714190775761380791664123535
  1 settings made for mass
set atom 47 volume 0.52007378172514950875893191550858
  1 settings made for volume
set atom 47 mass 468.06640355263454011947032995522022
  1 settings made for mass
set atom 48 volume 0.52682037135501047497854187895427
  1 settings made for volume
set atom 48 mass 474.13833421950943147749057970941067
  1 settings made for mass
set atom 49 volume 0.52165164541775943529700043654884
  1 settings made for volume
set atom 49 mass 469.48648087598348865867592394351959
  1 settings made for mass
set atom 50 volume 0.52665276415675010834860358954757
  1 settings made for volume
set atom 50 mass 473.98748774107508552333456464111805
  1 settings made for mass
set atom 51 volume 0.52667917394335583836095793230925
  1 settings made for volume
set atom 51 mass 474.01125654902023143222322687506676
  1 settings made for mass
set atom 52 volume 0.52113412606515063796308595556184
  1 settings made for volume
set atom 52 mass 469.02071345863555507094133645296097
  1 settings made for mass
set atom 53 volume 0.52716660574638896097354745506891
  1 settings made for volume
set atom 53 mass 474.44994517175007331388769671320915
  1 settings made for mass
set atom 54 volume 0.52610134334341240869292732895701
  1 settings made for volume
set atom 54 mass 473.49120900907115583322593010962009
  1 settings made for mass
set atom 55 volume 0.51877491835921141216658725170419
  1 settings made for volume
set atom 55 mass 466.89742652329027805535588413476944
  1 settings made for mass
set atom 56 volume 0.52461824773799148324826546740951
  1 settings made for volume
set atom 56 mass 472.15642296419235890425625257194042
  1 settings made for mass
set atom 57 volume 0.52616198999465935148833750645281
  1 settings made for volume
set atom 57 mass 473.54579099519344254076713696122169
  1 settings made for mass
set atom 58 volume 0.52656670918241954559846362826647
  1 settings made for volume
set atom 58 mass 473.91003826417761501943459734320641
  1 settings made for mass
set atom 59 volume 0.52221937810618146436070219351677
  1 settings made for volume
set atom 59 mass 469.99744029556330815466935746371746
  1 settings made for mass
set atom 60 volume 0.52655173600528049071556324634003
  1 settings made for volume
set atom 60 mass 473.89656240475244430854218080639839
  1 settings made for mass
set atom 61 volume 0.51950309406984718219035812580842
  1 settings made for volume
set atom 61 mass 467.55278466286245020455680787563324
  1 settings made for mass
set atom 62 volume 0.52044314434592719997851872903993
  1 settings made for volume
set atom 62 mass 468.39882991133447376341791823506355
  1 settings made for mass
set atom 63 volume 0.52402148797931524804027958452934
  1 settings made for volume
set atom 63 mass 471.61933918138373655892792157828808
  1 settings made for mass
set atom 64 volume 0.52310130264826026902369449089747
  1 settings made for volume
set atom 64 mass 470.79117238343422968682716600596905
  1 settings made for mass
set atom 65 volume 0.52221319537218990891602743431577
  1 settings made for volume
set atom 65 mass 469.99187583497092646211967803537846
  1 settings made for mass
set atom 66 volume 0.52656139705663673744595598691376
  1 settings made for volume
set atom 66 mass 473.90525735097304504961357451975346
  1 settings made for mass
set atom 67 volume 0.52611729050288358333631322238944
  1 settings made for volume
set atom 67 mass 473.50556145259520235413219779729843
  1 settings made for mass
set atom 68 volume 0.52167509541225498548300265611033
  1 settings made for volume
set atom 68 mass 469.50758587102950514235999435186386
  1 settings made for mass
set atom 69 volume 0.52173055259041967168798237253213
  1 settings made for volume
set atom 69 mass 469.55749733137770363100571557879448
  1 settings made for mass
set atom 70 volume 0.52770439210212760627882744302042
  1 settings made for volume
set atom 70 mass 474.93395289191482788737630471587181
  1 settings made for mass
set atom 71 volume 0.52523161421171704610344477259787
  1 settings made for volume
set atom 71 mass 472.70845279054532284135348163545132
  1 settings made for mass
set atom 72 volume 0.52210046377883057022728507945430
  1 settings made for volume
set atom 72 mass 469.89041740094751276046736165881157
  1 settings made for mass
set atom 73 volume 0.51953044443701801302637477419921
  1 settings made for volume
set atom 73 mass 467.57739999331619173972285352647305
  1 settings made for mass
set atom 74 volume 0.52433666430832370775050321753952
  1 settings made for volume
set atom 74 mass 471.90299787749131610326003283262253
  1 settings made for mass
set atom 75 volume 0.52195272254893954055887661525048
  1 settings made for volume
set atom 75 mass 469.75745029404561137198470532894135
  1 settings made for mass
set atom 76 volume 0.52014725582625409572301578009501
  1 settings made for volume
set atom 76 mass 468.13253024362870746699627488851547
  1 settings made for mass
set atom 77 volume 0.52327111358865718848676351626636
  1 settings made for volume
set atom 77 mass 470.94400222979146519719506613910198
  1 settings made for mass
set atom 78 volume 0.52359198385352279103699402185157
  1 settings made for volume
set atom 78 mass 471.23278546817050482786726206541061
  1 settings made for mass
set atom 79 volume 0.52392825093282269222072500269860
  1 settings made for volume
set atom 79 mass 471.53542583954043720950721763074398
  1 settings made for mass
set atom 80 volume 0.52159856671755833179560113421758
  1 settings made for volume
set atom 80 mass 469.43871004580250883009284734725952
  1 settings made for mass
set atom 81 volume 0.52393221374089216091363141458714
  1 settings made for volume
set atom 81 mass 471.53899236680297235579928383231163
  1 settings made for mass
set atom 82 volume 0.52376070076751601867215413221857
  1 settings made for volume
set atom 82 mass 471.38463069076442479854449629783630
  1 settings made for mass
set atom 83 volume 0.52331866464857657028630910645006
  1 settings made for volume
set atom 83 mass 470.98679818371891769857029430568218
  1 settings made for mass
set atom 84 volume 0.52387816616561522220507640668075
  1 settings made for volume
set atom 84 mass 471.49034954905368977051693946123123
  1 settings made for mass
set atom 85 volume 0.52246602430262500948998649619170
  1 settings made for volume
set atom 85 mass 470.21942187236248855697340331971645
  1 settings made for mass
set atom 86 volume 0.52781148445530068347153473951039
  1 settings made for volume
set atom 86 mass 475.03033600977062178571941331028938
  1 settings made for mass
set atom 87 volume 0.52531731633530298619660925396602
  1 settings made for volume
set atom 87 mass 472.78558470177267736289650201797485
  1 settings made for mass
set atom 88 volume 0.52108768108624459181044130673399
  1 settings made for volume
set atom 88 mass 468.97891297762015483385766856372356
  1 settings made for mass
set atom 89 volume 0.52842790420910568105483662293409
  1 settings made for volume
set atom 89 mass 475.58511378819508763626799918711185
  1 settings made for mass
set atom 90 volume 0.51781291445910238024907812359743
  1 settings made for volume
set atom 90 mass 466.03162301319213156602927483618259
  1 settings made for mass
set atom 91 volume 0.52210851727866192106830567354336
  1 settings made for volume
set atom 91 mass 469.89766555079575027775717899203300
  1 settings made for mass
set atom 92 volume 0.52613316619274641539050207938999
  1 settings made for volume
set atom 92 mass 473.51984957347178806230658665299416
  1 settings made for mass
set atom 93 volume 0.52913321031580995423837521229871
  1 settings made for volume
set atom 93 mass 476.21988928422894105096929706633091
  1 settings made for mass
set atom 94 volume 0.52172301395093267917246748766047
  1 settings made for volume
set atom 94 mass 469.55071255583942502198624424636364
  1 settings made for mass
set atom 95 volume 0.53017602676865571709186042426154
  1 settings made for volume
set atom 95 mass 477.15842409179015248810173943638802
  1 settings made for mass
set atom 96 volume 0.52848629406234681749054971078294
  1 settings made for volume
set atom 96 mass 475.63766465611212197472923435270786
  1 settings made for mass
set atom 97 volume 0.52655903806650261600452722632326
  1 settings made for volume
set atom 97 mass 473.90313425985237927307025529444218
  1 settings made for mass
set atom 98 volume 0.52303487943982629460037969693076
  1 settings made for volume
set atom 98 mass 470.73139149584363849498913623392582
  1 settings made for mass
set atom 99 volume 0.52375972088767641654527551509091
  1 settings made for volume
set atom 99 mass 471.38374879890875490673352032899857
  1 settings made for mass
set atom 100 volume 0.52930178645343672894085784719209
  1 settings made for volume
set atom 100 mass 476.37160780809307425442966632544994
  1 settings made for mass
set atom 101 volume 0.52797469850900968779683353204746
  1 settings made for volume
set atom 101 mass 475.17722865810873145164805464446545
  1 settings made for mass
set atom 102 volume 0.52459157382857457552205460160621
  1 settings made for volume
set atom 102 mass 472.13241644571712640754412859678268
  1 settings made for mass
set atom 103 volume 0.52419059970246117963199594669277
  1 settings made for volume
set atom 103 mass 471.77153973221504656976321712136269
  1 settings made for mass
set atom 104 volume 0.52851143540029743572716824928648
  1 settings made for volume
set atom 104 mass 475.66029186026770503303851000964642
  1 settings made for mass
set atom 105 volume 0.52567419102626988802740015671588
  1 settings made for volume
set atom 105 mass 473.10677192364289567194646224379539
  1 settings made for mass
set atom 106 volume 0.52373972291182147031918248103466
  1 settings made for volume
set atom 106 mass 471.36575062063934637990314513444901
  1 settings made for mass
set atom 107 volume 0.52418293537071491972056946906378
  1 settings made for volume
set atom 107 mass 471.76464183364345217341906391084194
  1 settings made for mass
set atom 108 volume 0.52530572959654009412844288817723
  1 settings made for volume
set atom 108 mass 472.77515663688609492965042591094971
  1 settings made for mass
set atom 109 volume 0.52175580124263176706733702303609
  1 settings made for volume
set atom 109 mass 469.58022111836856993249966762959957
  1 settings made for mass
set atom 110 volume 0.52227476646458137476969341150834
  1 settings made for volume
set atom 110 mass 470.04728981812326082945219241082668
  1 settings made for mass
set atom 111 volume 0.52116472629994203824566056937329
  1 settings made for volume
set atom 111 mass 469.04825366994782598339952528476715
  1 settings made for mass
set atom 112 volume 0.52470085861865223275657399426564
  1 settings made for volume
set atom 112 mass 472.23077275678701880679000169038773
  1 settings made for mass
set atom 113 volume 0.52303347977100833610109020810341
  1 settings made for volume
set atom 113 mass 470.73013179390750337915960699319839
  1 settings made for mass
set atom 114 volume 0.52509492049929440415922954343841
  1 settings made for volume
set atom 114 mass 472.58542844936494020657846704125404
  1 settings made for mass
set atom 115 volume 0.51979056954323199501999397398322
  1 settings made for volume
set atom 115 mass 467.81151258890878352758591063320637
  1 settings made for mass
set atom 116 volume 0.52130774324506023997827242055791
  1 settings made for volume
set atom 116 mass 469.17696892055420221367967315018177
  1 settings made for mass
set atom 117 volume 0.52664711927446095085514343736577
  1 settings made for volume
set atom 117 mass 473.98240734701482779200887307524681
  1 settings made for mass
set atom 118 volume 0.52455208096816630103376155602746
  1 settings made for volume
set atom 118 mass 472.09687287134966027224436402320862
  1 settings made for mass
set atom 119 volume 0.52820904678839797341538542241324
  1 settings made for volume
set atom 119 mass 475.38814210955820271919947117567062
  1 settings made for mass
set atom 120 volume 0.52693402467141992051580245970399
  1 settings made for volume
set atom 120 mass 474.24062220427794045463087968528271
  1 settings made for mass
set atom 121 volume 0.52357785025110004095694193892996
  1 settings made for volume
set atom 121 mass 471.22006522599002664719591848552227
  1 settings made for mass
set atom 122 volume 0.52525667173984913471684876640211
  1 settings made for volume
set atom 122 mass 472.73100456586422524196677841246128
  1 settings made for mass
set atom 123 volume 0.52336588614081136494604606923531
  1 settings made for volume
set atom 123 mass 471.02929752673020402653492055833340
  1 settings made for mass
set atom 124 volume 0.52264597985536009883134056508425
  1 settings made for volume
set atom 124 mass 470.38138186982411070857779122889042
  1 settings made for mass
set atom 125 volume 0.52060063557724045590902051117155
  1 settings made for volume
set atom 125 mass 468.54057201951638944592559710144997
  1 settings made for mass
set atom 126 volume 0.52559450154660947163165474194102
  1 settings made for volume
set atom 126 mass 473.03505139194851381034823134541512
  1 settings made for mass
set atom 127 volume 0.52584931129676637517889048467623
  1 settings made for volume
set atom 127 mass 473.26438016708971190382726490497589
  1 settings made for mass
set atom 128 volume 0.52291667344242098725004552761675
  1 settings made for volume
set atom 128 mass 470.62500609817891472630435600876808
  1 settings made for mass
set atom 129 volume 0.52315711390421526516547601204365
  1 settings made for volume
set atom 129 mass 470.84140251379375285978312604129314
  1 settings made for mass
set atom 130 volume 0.52426783199501902910100170629448
  1 settings made for volume
set atom 130 mass 471.84104879551711064777919091284275
  1 settings made for mass
set atom 131 volume 0.52619609972616854243199213669868
  1 settings made for volume
set atom 131 mass 473.57648975355169795875553973019123
  1 settings made for mass
set atom 132 volume 0.51963151084916192612439544973313
  1 settings made for volume
set atom 132 mass 467.66835976424573573240195401012897
  1 settings made for mass
set atom 133 volume 0.52324653472481552629602674642229
  1 settings made for volume
set atom 133 mass 470.92188125233394657698227092623711
  1 settings made for mass
set atom 134 volume 0.52533130304074371341727101025754
  1 settings made for volume
set atom 134 mass 472.79817273666935761866625398397446
  1 settings made for mass
set atom 135 volume 0.52537296376603981329367343278136
  1 settings made for volume
set atom 135 mass 472.83566738943585505694500170648098
  1 settings made for mass
set atom 136 volume 0.52609284017917812281694978082669
  1 settings made for volume
set atom 136 mass 473.48355616126031009116559289395809
  1 settings made for mass
set atom 137 volume 0.52455034481859230677258665309637
  1 settings made for volume
set atom 137 mass 472.09531033673306410491932183504105
  1 settings made for mass
set atom 138 volume 0.52265513376239713938531394887832
  1 settings made for volume
set atom 138 mass 470.38962038615744631897541694343090
  1 settings made for mass
set atom 139 volume 0.52180385264201589734511799179018
  1 settings made for volume
set atom 139 mass 469.62346737781433603231562301516533
  1 settings made for mass
set atom 140 volume 0.52780067519424789246329510206124
  1 settings made for volume
set atom 140 mass 475.02060767482311121057136915624142
  1 settings made for mass
set atom 141 volume 0.52567007949508803843485793549917
  1 settings made for volume
set atom 141 mass 473.10307154557921194282243959605694
  1 settings made for mass
set atom 142 volume 0.52657412553930293963588837868883
  1 settings made for volume
set atom 142 mass 473.91671298537266920902766287326813
  1 settings made for mass
set atom 143 volume 0.52799368051203221519074304524111
  1 settings made for volume
set atom 143 mass 475.19431246082899633620399981737137
  1 settings made for mass
set atom 144 volume 0.52399949667957623766767483175499
  1 settings made for volume
set atom 144 mass 471.59954701161859702551737427711487
  1 settings made for mass
set atom 145 volume 0.52262451627354733485475435372791
  1 settings made for volume
set atom 145 mass 470.36206464619260714243864640593529
  1 settings made for mass
set atom 146 volume 0.52435628288674163144378326251172
  1 settings made for volume
set atom 146 mass 471.92065459806747185211861506104469
  1 settings made for mass
set atom 147 volume 0.52557877836316146957784667392843
  1 settings made for volume
set atom 147 mass 473.02090052684530974147492088377476
  1 settings made for mass
set atom 148 volume 0.51806753239792358023407814471284
  1 settings made for volume
set atom 148 mass 466.26077915813124263877398334443569
  1 settings made for mass
set atom 149 volume 0.52632790361782844090754451826797
  1 settings made for volume
set atom 149 mass 473.69511325604560170177137479186058
  1 settings made for mass
set atom 150 volume 0.51831588402191153264197964745108
  1 settings made for volume
set atom 150 mass 466.48429561972039891770691610872746
  1 settings made for mass
set atom 151 volume 0.52325162998414287418569301735261
  1 settings made for volume
set atom 151 mass 470.92646698572860941567341797053814
  1 settings made for mass
set atom 152 volume 0.52288116857679223237198584683938
  1 settings made for volume
set atom 152 mass 470.59305171911302068110671825706959
  1 settings made for mass
set atom 153 volume 0.51750296360362857406300918228226
  1 settings made for volume
set atom 153 mass 465.75266724326570511038880795240402
  1 settings made for mass
set atom 154 volume 0.52216910428141072308960701775504
  1 settings made for volume
set atom 154 mass 469.95219385326964811611105687916279
  1 settings made for mass
set atom 155 volume 0.52516637975804902893628423043992
  1 settings made for volume
set atom 155 mass 472.64974178224412071358528919517994
  1 settings made for mass
set atom 156 volume 0.52622551504328374250007982482202
  1 settings made for volume
set atom 156 mass 473.60296353895535048650344833731651
  1 settings made for mass
set atom 157 volume 0.52057084244833995434476037189597
  1 settings made for volume
set atom 157 mass 468.51375820350597223296063020825386
  1 settings made for mass
set atom 158 volume 0.51950066943582196010709139954997
  1 settings made for volume
set atom 158 mass 467.55060249223976143184700049459934
  1 settings made for mass
set atom 159 volume 0.52787764341114717936420674959663
  1 settings made for volume
set atom 159 mass 475.08987907003245254600187763571739
  1 settings made for mass
set atom 160 volume 0.52386205869957913616730138528510
  1 settings made for volume
set atom 160 mass 471.47585282962120345473522320389748
  1 settings made for mass
set atom 161 volume 0.52164061862925725776563012914266
  1 settings made for volume
set atom 161 mass 469.47655676633155508170602843165398
  1 settings made for mass
set atom 162 volume 0.52260995094806117489127927910886
  1 settings made for volume
set atom 162 mass 470.34895585325506317531107924878597
  1 settings made for mass
set atom 163 volume 0.52164347267165900312591020338004
  1 settings made for volume
set atom 163 mass 469.47912540449311791235231794416904
  1 settings made for mass
set atom 164 volume 0.52448490834730854270873123823549
  1 settings made for volume
set atom 164 mass 472.03641751257771375094307586550713
  1 settings made for mass
set atom 165 volume 0.52569589401373750803259099484421
  1 settings made for volume
set atom 165 mass 473.12630461236375367661821655929089
  1 settings made for mass
set atom 166 volume 0.51842751746452542249699035892263
  1 settings made for volume
set atom 166 mass 466.58476571807290156357339583337307
  1 settings made for mass
set atom 167 volume 0.51745798435390022440572010964388
  1 settings made for volume
set atom 167 mass 465.71218591851021528782439418137074
  1 settings made for mass
set atom 168 volume 0.52345802919306660960785393399419
  1 settings made for volume
set atom 168 mass 471.11222627375997262788587249815464
  1 settings made for mass
set atom 169 volume 0.52236672824640617562863553757779
  1 settings made for volume
set atom 169 mass 470.13005542176557582934037782251835
  1 settings made for mass
set atom 170 volume 0.52802213488469185165286035044119
  1 settings made for volume
set atom 170 mass 475.21992139622267359300167299807072
  1 settings made for mass
set atom 171 volume 0.52290071209842214905449964135187
  1 settings made for volume
set atom 171 mass 470.61064088857995102443965151906013
  1 settings made for mass
set atom 172 volume 0.52270427739293645608142924174899
  1 settings made for volume
set atom 172 mass 470.43384965364282379596261307597160
  1 settings made for mass
set atom 173 volume 0.52031878832259004230564869430964
  1 settings made for volume
set atom 173 mass 468.28690949033102697285357862710953
  1 settings made for mass
set atom 174 volume 0.52821656101095626478780786783318
  1 settings made for volume
set atom 174 mass 475.39490490986065651668468490242958
  1 settings made for mass
set atom 175 volume 0.52710284536657880938292919381638
  1 settings made for volume
set atom 175 mass 474.39256082992091023697867058217525
  1 settings made for mass
set atom 176 volume 0.52255471608506587344322724675294
  1 settings made for volume
set atom 176 mass 470.29924447655929498068871907889843
  1 settings made for mass
set atom 177 volume 0.52243886969740849224308476550505
  1 settings made for volume
set atom 177 mass 470.19498272766765012420364655554295
  1 settings made for mass
set atom 178 volume 0.52590545517219910998107934574364
  1 settings made for volume
set atom 178 mass 473.31490965497920342386350966989994
  1 settings made for mass
set atom 179 volume 0.51985524804404348309105898806592
  1 settings made for volume
set atom 179 mass 467.86972323963914277555886656045914
  1 settings made for mass
set atom 180 volume 0.52219186030798014908071991158067
  1 settings made for volume
set atom 180 mass 469.97267427718213639309396967291832
  1 settings made for mass
set atom 181 volume 0.52186735231175429561290002311580
  1 settings made for volume
set atom 181 mass 469.68061708057888381517841480672359
  1 settings made for mass
set atom 182 volume 0.52322566449586205283850404157420
  1 settings made for volume
set atom 182 mass 470.90309804627582934699603356420994
  1 settings made for mass
set atom 183 volume 0.53154112853463375554241565623670
  1 settings made for volume
set atom 183 mass 478.38701568117039641947485506534576
  1 settings made for mass
set atom 184 volume 0.51962593020753822248281039719586
  1 settings made for volume
set atom 184 mass 467.66333718678441755400854162871838
  1 settings made for mass
set atom 185 volume 0.51887516139856260100060580953141
  1 settings made for volume
set atom 185 mass 466.98764525870632269288762472569942
  1 settings made for mass
set atom 186 volume 0.52875350893616801517538306143251
  1 settings made for volume
set atom 186 mass 475.87815804255120610832818783819675
  1 settings made for mass
set atom 187 volume 0.52342727487997786628426410970860
  1 settings made for volume
set atom 187 mass 471.08454739198009519896004348993301
  1 settings made for mass
set atom 188 volume 0.52557008481527267562682936841156
  1 settings made for volume
set atom 188 mass 473.01307633374540273507591336965561
  1 settings made for mass
set atom 189 volume 0.52019501619041286222255848770146
  1 settings made for volume
set atom 189 mass 468.17551457137159331978182308375835
  1 settings made for mass
set atom 190 volume 0.52127638796710773494424984164652
  1 settings made for volume
set atom 190 mass 469.14874917039696811116300523281097
  1 settings made for mass
set atom 191 volume 0.52411723247474006903701138071483
  1 settings made for volume
set atom 191 mass 471.70550922726607723234337754547596
  1 settings made for mass
set atom 192 volume 0.52219618687811775181728535244474
  1 settings made for volume
set atom 192 mass 469.97656819030595443109632469713688
  1 settings made for mass
set atom 193 volume 0.52848493198742685361679605193785
  1 settings made for volume
set atom 193 mass 475.63643878868418823913088999688625
  1 settings made for mass
set atom 194 volume 0.52532034691905893364349822149961
  1 settings made for volume
set atom 194 mass 472.78831222715302828873973339796066
  1 settings made for mass
set atom 195 volume 0.52216541749133116301351265065023
  1 settings made for volume
set atom 195 mass 469.94887574219802672814694233238697
  1 settings made for mass
set atom 196 volume 0.52148559881274292315822549426230
  1 settings made for volume
set atom 196 mass 469.33703893146861219065613113343716
  1 settings made for mass
set atom 197 volume 0.52237712204165998031157869263552
  1 settings made for volume
set atom 197 mass 470.13940983749398583313450217247009
  1 settings made for mass
set atom 198 volume 0.52582928014606911126804789091693
  1 settings made for volume
set atom 198 mass 473.24635213146217438406893052160740
  1 settings made for mass
set atom 199 volume 0.52548629631261756234295035028481
  1 settings made for volume
set atom 199 mass 472.93766668135577901921351440250874
  1 settings made for mass
set atom 200 volume 0.52612684604457593540161042255932
  1 settings made for volume
set atom 200 mass 473.51416144011835740457172505557537
  1 settings made for mass
set atom 201 volume 0.52002493234848790049085209830082
  1 settings made for volume
set atom 201 mass 468.02243911363910910949925892055035
  1 settings made for mass
set atom 202 volume 0.52242018964074454778767631069059
  1 settings made for volume
set atom 202 mass 470.17817067667010633158497512340546
  1 settings made for mass
set atom 203 volume 0.52716669307115138209951510361861
  1 settings made for volume
set atom 203 mass 474.45002376403624566592043265700340
  1 settings made for mass
set atom 204 volume 0.51894504647397410312947840793640
  1 settings made for volume
set atom 204 mass 467.05054182657670480693923309445381
  1 settings made for mass
set atom 205 volume 0.52504101598985686294440711208154
  1 settings made for volume
set atom 205 mass 472.53691439087117487360956147313118
  1 settings made for mass
set atom 206 volume 0.52038471313389900174684044031892
  1 settings made for volume
set atom 206 mass 468.34624182050907847951748408377171
  1 settings made for mass
set atom 207 volume 0.52625578444880072304101759073092
  1 settings made for volume
set atom 207 mass 473.63020600392064807238057255744934
  1 settings made for mass
set atom 208 volume 0.52258491932010708858058478654129
  1 settings made for volume
set atom 208 mass 470.32642738809636284713633358478546
  1 settings made for mass
set atom 209 volume 0.52917640457571679668546948960284
  1 settings made for volume
set atom 209 mass 476.25876411814510902331676334142685
  1 settings made for mass
set atom 210 volume 0.52298363956550653064425659977132
  1 settings made for volume
set atom 210 mass 470.68527560895586248079780489206314
  1 settings made for mass
set atom 211 volume 0.52570120364148509306545520303189
  1 settings made for volume
set atom 211 mass 473.13108327733658597935573197901249
  1 settings made for mass
set atom 212 volume 0.52007152166455150599233547836775
  1 settings made for volume
set atom 212 mass 468.06436949809636871577822603285313
  1 settings made for mass
set atom 213 volume 0.52234117534059165688375969693880
  1 settings made for volume
set atom 213 mass 470.10705780653250940304133109748363
  1 settings made for mass
set atom 214 volume 0.52469809574435821719617933922564
  1 settings made for volume
set atom 214 mass 472.22828616992239858518587425351143
  1 settings made for mass
set atom 215 volume 0.51560175363880011989436980002210
  1 settings made for volume
set atom 215 mass 464.04157827492008436820469796657562
  1 settings made for mass
set atom 216 volume 0.52366398219963883331473653015564
  1 settings made for volume
set atom 216 mass 471.29758397967492555835633538663387
  1 settings made for mass
set atom 217 volume 0.52132026532027886389641935238615
  1 settings made for volume
set atom 217 mass 469.18823878825099882305948995053768
  1 settings made for mass
set atom 218 volume 0.52219608245977633398382522500469
  1 settings made for volume
set atom 218 mass 469.97647421379872412217082455754280
  1 settings made for mass
set atom 219 volume 0.52422923656918729573561677170801
  1 settings made for volume
set atom 219 mass 471.80631291226853818443487398326397
  1 settings made for mass
set atom 220 volume 0.52943875602833745386277541911113
  1 settings made for volume
set atom 220 mass 476.49488042550370892058708705008030
  1 settings made for mass
set atom 221 volume 0.51983596230086293044081457992434
  1 settings made for volume
set atom 221 mass 467.85236607077661119546974077820778
  1 settings made for mass
set atom 222 volume 0.52256790775059924758494389607222
  1 settings made for volume
set atom 222 mass 470.31111697553933481685817241668701
  1 settings made for mass
set atom 223 volume 0.52182617534572151019034436103539
  1 settings made for volume
set atom 223 mass 469.64355781114937826714594848453999
  1 settings made for mass
set atom 224 volume 0.52217531821913365508436299933237
  1 settings made for volume
set atom 224 mass 469.95778639722027492098277434706688
  1 settings made for mass
set atom 225 volume 0.52463440442389830398184358273284
  1 settings made for volume
set atom 225 mass 472.17096398150846425778581760823727
  1 settings made for mass
set atom 226 volume 0.52601904751804984261553954638657
  1 settings made for volume
set atom 226 mass 473.41714276624486501532373949885368
  1 settings made for mass
set atom 227 volume 0.52385797023464941712944664686802
  1 settings made for volume
set atom 227 mass 471.47217321118449717687326483428478
  1 settings made for mass
set atom 228 volume 0.52046191685616227662336541470722
  1 settings made for volume
set atom 228 mass 468.41572517054606805686489678919315
  1 settings made for mass
set atom 229 volume 0.52128056219212604016632894854411
  1 settings made for volume
set atom 229 mass 469.15250597291344547556946054100990
  1 settings made for mass
set atom 230 volume 0.52611579084807347239660657578497
  1 settings made for volume
set atom 230 mass 473.50421176326614158824668265879154
  1 settings made for mass
set atom 231 volume 0.52324821448893399367108258957160
  1 settings made for volume
set atom 231 mass 470.92339304004059385988512076437473
  1 settings made for mass
set atom 232 volume 0.52469416411405755962249486401561
  1 settings made for volume
set atom 232 mass 472.22474770265182542061666026711464
  1 settings made for mass
set atom 233 volume 0.52662645209718006444887805628241
  1 settings made for volume
set atom 233 mass 473.96380688746205578354420140385628
  1 settings made for mass
set atom 234 volume 0.52579635678421632327683710173005
  1 settings made for volume
set atom 234 mass 473.21672110579470427182968705892563
  1 settings made for mass
set atom 235 volume 0.51882830813499092315055349899922
  1 settings made for volume
set atom 235 mass 466.94547732149180774285923689603806
  1 settings made for mass
set atom 236 volume 0.52627069019340111388771674683085
  1 settings made for volume
set atom 236 mass 473.64362117406102470340556465089321
  1 settings made for mass
set atom 237 volume 0.52196257996754158448027283156989
  1 settings made for volume
set atom 237 mass 469.76632197078743047313764691352844
  1 settings made for mass
set atom 238 volume 0.52545418877371685706378912072978
  1 settings made for volume
set atom 238 mass 472.90876989634517713056993670761585
  1 settings made for mass
set atom 239 volume 0.52165956054528417329407830038690
  1 settings made for volume
set atom 239 mass 469.49360449075572887522866949439049
  1 settings made for mass
set atom 240 volume 0.52462156460949294078943694330519
  1 settings made for volume
set atom 240 mass 472.15940814854366180952638387680054
  1 settings made for mass
set atom 241 volume 0.51955873605300972872811371416901
  1 settings made for volume
set atom 241 mass 467.60286244770873054221738129854202
  1 settings made for mass
set atom 242 volume 0.52846309903698018839435235349811
  1 settings made for volume
set atom 242 mass 475.61678913328216822264948859810829
  1 settings made for mass
set atom 243 volume 0.51899665546820705763764181028819
  1 settings made for volume
set atom 243 mass 467.09698992138635276205604895949364
  1 settings made for mass
set atom 244 volume 0.51898355159073272790948294641566
  1 settings made for volume
set atom 244 mass 467.08519643165948309615487232804298
  1 settings made for mass
set atom 245 volume 0.52028995928703303253115564075415
  1 settings made for volume
set atom 245 mass 468.26096335832971817580983042716980
  1 settings made for mass
set atom 246 volume 0.52344469741446708610510540893301
  1 settings made for volume
set atom 246 mass 471.10022767302035617831279523670673
  1 settings made for mass
set atom 247 volume 0.52632576748414294787181688661803
  1 settings made for volume
set atom 247 mass 473.69319073572864908783230930566788
  1 settings made for mass
set atom 248 volume 0.52359458965181182588111141740228
  1 settings made for volume
set atom 248 mass 471.23513068663066860608523711562157
  1 settings made for mass
set atom 249 volume 0.52442676908330310148187436425360
  1 settings made for volume
set atom 249 mass 471.98409217497277268194011412560940
  1 settings made for mass
set atom 250 volume 0.52052068202728263290879340274842
  1 settings made for volume
set atom 250 mass 468.46861382455438160832272842526436
  1 settings made for mass
set atom 251 volume 0.52249106515812770989981572711258
  1 settings made for volume
set atom 251 mass 470.24195864231495534113491885364056
  1 settings made for mass
set atom 252 volume 0.52517500223752899835005791828735
  1 settings made for volume
set atom 252 mass 472.65750201377608163966215215623379
  1 settings made for mass
set atom 253 volume 0.53070847081218197605068098710035
  1 settings made for volume
set atom 253 mass 477.63762373096375313252792693674564
  1 settings made for mass
set atom 254 volume 0.52178652919619317174237949075177
  1 settings made for volume
set atom 254 mass 469.60787627657384746271418407559395
  1 settings made for mass
set atom 255 volume 0.51862641986590229947751140571199
  1 settings made for volume
set atom 255 mass 466.76377787931204466076451353728771
  1 settings made for mass
set atom 256 volume 0.52001863937437176055311738309683
  1 settings made for volume
set atom 256 mass 468.01677543693460847862297669053078
  1 settings made for mass
set atom 257 volume 0.52516394504624852590524142215145
  1 settings made for volume
set atom 257 mass 472.64755054162367287062807008624077
  1 settings made for mass
set atom 258 volume 0.52691208051193716421778390213149
  1 settings made for volume
set atom 258 mass 474.22087246074346467139548622071743
  1 settings made for mass
set atom 259 volume 0.52773745225994239671507557432051
  1 settings made for volume
set atom 259 mass 474.96370703394813972408883273601532
  1 settings made for mass
set atom 260 volume 0.52709608792211859462639722551103
  1 settings made for volume
set atom 260 mass 474.38647912990671784427831880748272
  1 settings made for mass
set atom 261 volume 0.52456322674277244821894328197232
  1 settings made for volume
set atom 261 mass 472.10690406849522560150944627821445
  1 settings made for mass
set atom 262 volume 0.52745962539985602468561864952790
  1 settings made for volume
set atom 262 mass 474.71366285987039645988261327147484
  1 settings made for mass
set atom 263 volume 0.52587014456987302146728779916884
  1 settings made for volume
set atom 263 mass 473.28313011288571487966692075133324
  1 settings made for mass
set atom 264 volume 0.52484572475725499440812882312457
  1 settings made for volume
set atom 264 mass 472.36115228152948475326411426067352
  1 settings made for mass
set atom 265 volume 0.52664536310036258459632563244668
  1 settings made for volume
set atom 265 mass 473.98082679032631858717650175094604
  1 settings made for mass
set atom 266 volume 0.52062722748359469004952870818670
  1 settings made for volume
set atom 266 mass 468.56450473523523214680608361959457
  1 settings made for mass
set atom 267 volume 0.52112254238871724698611842541141
  1 settings made for volume
set atom 267 mass 469.01028814984550763256265781819820
  1 settings made for mass
set atom 268 volume 0.52367895812371534347562374023255
  1 settings made for volume
set atom 268 mass 471.31106231134378958813613280653954
  1 settings made for mass
set atom 269 volume 0.52222885891052339690787675863248
  1 settings made for volume
set atom 269 mass 470.00597301947107098385458812117577
  1 settings made for mass
set atom 270 volume 0.52136346268996380803883994303760
  1 settings made for volume
set atom 270 mass 469.22711642096743389629409648478031
  1 settings made for mass
set atom 271 volume 0.52720647893343786094533243158367
  1 settings made for volume
set atom 271 mass 474.48583104009406952172867022454739
  1 settings made for mass
set atom 272 volume 0.52231875717096032385455828261911
  1 settings made for volume
set atom 272 mass 470.08688145386429368954850360751152
  1 settings made for mass
set atom 273 volume 0.52590023640890648515267002949258
  1 settings made for volume
set atom 273 mass 473.31021276801584463100880384445190
  1 settings made for mass
set atom 274 volume 0.51812082291690098045933154935483
  1 settings made for volume
set atom 274 mass 466.30874062521087353161419741809368
  1 settings made for mass
set atom 275 volume 0.52625933286068693472969926006044
  1 settings made for volume
set atom 275 mass 473.63339957461823814810486510396004
  1 settings made for mass
set atom 276 volume 0.52180557044458708570999760922859
  1 settings made for volume
set atom 276 mass 469.62501340012835271409130655229092
  1 settings made for mass
set atom 277 volume 0.51652852454642239621307453489862
  1 settings made for volume
set atom 277 mass 464.87567209178013172277132980525494
  1 settings made for mass
set atom 278 volume 0.52165917888064738949793763822527
  1 settings made for volume
set atom 278 mass 469.49326099258263411684310995042324
  1 settings made for mass
set atom 279 volume 0.52276107084010525749562248165603
  1 settings made for volume
set atom 279 mass 470.48496375609471442658104933798313
  1 settings made for mass
set atom 280 volume 0.52684886279564657751706135968561
  1 settings made for volume
set atom 280 mass 474.16397651608190244587603956460953
  1 settings made for mass
set atom 281 volume 0.52489395250536696746479492503568
  1 settings made for volume
set atom 281 mass 472.40455725483025162247940897941589
  1 settings made for mass
set atom 282 volume 0.52193673232233195324880625776132
  1 settings made for volume
set atom 282 mass 469.74305909009876813797745853662491
  1 settings made for mass
set atom 283 volume 0.52418444946212605639601633811253
  1 settings made for volume
set atom 283 mass 471.76600451591343698964919894933701
  1 settings made for mass
set atom 284 volume 0.52279892258461480025744094746187
  1 settings made for volume
set atom 284 mass 470.51903032615331312626949511468410
  1 settings made for mass
set atom 285 volume 0.52338045586975456835432396474062
  1 settings made for volume
set atom 285 mass 471.04241028277908753807423636317253
  1 settings made for mass
set atom 286 volume 0.52621481071520481709313799001393
  1 settings made for volume
set atom 286 mass 473.59332964368434204516233876347542
  1 settings made for mass
set atom 287 volume 0.52577598347277076928918404519209
  1 settings made for volume
set atom 287 mass 473.19838512549370079796062782406807
  1 settings made for mass
set atom 288 volume 0.51872544389837560441236519181984
  1 settings made for volume
set atom 288 mass 466.85289950853803020436316728591919
  1 settings made for mass
set atom 289 volume 0.52762330114264544000945988955209
  1 settings made for volume
set atom 289 mass 474.86097102838090222576283849775791
  1 settings made for mass
set atom 290 volume 0.52674167161714879892286944595980
  1 settings made for volume
set atom 290 mass 474.06750445543389105296228080987930
  1 settings made for mass
set atom 291 volume 0.52326520631485928802817397809122
  1 settings made for volume
set atom 291 mass 470.93868568337336455442709848284721
  1 settings made for mass
set atom 292 volume 0.52078827340242150878424354232266
  1 settings made for volume
set atom 292 mass 468.70944606217938144254731014370918
  1 settings made for mass
set atom 293 volume 0.52293744249486928676873276344850
  1 settings made for volume
set atom 293 mass 470.64369824538238162858760915696621
  1 settings made for mass
set atom 294 volume 0.52425826354683680019519442794262
  1 settings made for volume
set atom 294 mass 471.83243719215312239612103439867496
  1 settings made for mass
set atom 295 volume 0.51893993835634255606947817796026
  1 settings made for volume
set atom 295 mass 467.04594452070830357115482911467552
  1 settings made for mass
set atom 296 volume 0.52230790708371555020050891471328
  1 settings made for volume
set atom 296 mass 470.07711637534401916127535514533520
  1 settings made for mass
set atom 297 volume 0.52361647415327638999116288687219
  1 settings made for volume
set atom 297 mass 471.25482673794874699524370953440666
  1 settings made for mass
set atom 298 volume 0.52553382684200422581000111676985
  1 settings made for volume
set atom 298 mass 472.98044415780378812996787019073963
  1 settings made for mass
set atom 299 volume 0.52662839855287790769011735392269
  1 settings made for volume
set atom 299 mass 473.96555869759009738118038512766361
  1 settings made for mass
set atom 300 volume 0.52743093264483642546025521369302
  1 settings made for volume
set atom 300 mass 474.68783938035278424649732187390327
  1 settings made for mass
set atom 301 volume 0.52910861443057577435666871679132
  1 settings made for volume
set atom 301 mass 476.19775298751818581877159886062145
  1 settings made for mass
set atom 302 volume 0.52086191115736180101691843447043
  1 settings made for volume
set atom 302 mass 468.77572004162561825069133192300797
  1 settings made for mass
set atom 303 volume 0.52031391994550668655961089825723
  1 settings made for volume
set atom 303 mass 468.28252795095602323272032663226128
  1 settings made for mass
set atom 304 volume 0.52781288875192167164840384430136
  1 settings made for volume
set atom 304 mass 475.03159987672950137493899092078209
  1 settings made for mass
set atom 305 volume 0.51896805346817687087934700684855
  1 settings made for volume
set atom 305 mass 467.07124812135919000866124406456947
  1 settings made for mass
set atom 306 volume 0.52102464883278309937253425232484
  1 settings made for volume
set atom 306 mass 468.92218394950481297200894914567471
  1 settings made for mass
set atom 307 volume 0.52696213328457508495716865581926
  1 settings made for volume
set atom 307 mass 474.26591995611755692152655683457851
  1 settings made for mass
set atom 308 volume 0.51862471426673750762859071983257
  1 settings made for volume
set atom 308 mass 466.76224284006377729383530095219612
  1 settings made for mass
set atom 309 volume 0.52595970736801300748908261084580
  1 settings made for volume
set atom 309 mass 473.36373663121167965073254890739918
  1 settings made for mass
set atom 310 volume 0.52696676434045386372417851816863
  1 settings made for volume
set atom 310 mass 474.27008790640849156261538155376911
  1 settings made for mass
set atom 311 volume 0.52012202103230398275712786926306
  1 settings made for volume
set atom 311 mass 468.10981892907358314914745278656483
  1 settings made for mass
set atom 312 volume 0.52623495953984722461882483912632
  1 settings made for volume
set atom 312 mass 473.61146358586250926236971281468868
  1 settings made for mass
set atom 313 volume 0.51806598018957972229259212326724
  1 settings made for volume
set atom 313 mass 466.25938217062173407612135633826256
  1 settings made for mass
set atom 314 volume 0.52153553034781940933584110098309
  1 settings made for volume
set atom 314 mass 469.38197731303745285913464613258839
  1 settings made for mass
set atom 315 volume 0.52351560096481408734803153492976
  1 settings made for volume
set atom 315 mass 471.16404086833267683687154203653336
  1 settings made for mass
set atom 316 volume 0.52265464757053980981993390741991
  1 settings made for volume
set atom 316 mass 470.38918281348583150247577577829361
  1 settings made for mass
set atom 317 volume 0.52469312294009073927014696892002
  1 settings made for volume
set atom 317 mass 472.22381064608168799168197438120842
  1 settings made for mass
set atom 318 volume 0.52409583765179690306723614412476
  1 settings made for volume
set atom 318 mass 471.68625388661723718541907146573067
  1 settings made for mass
set atom 319 volume 0.52632706456727673671736056348891
  1 settings made for volume
set atom 319 mass 473.69435811054904661432374268770218
  1 settings made for mass
set atom 320 volume 0.51990871519313697213249270134838
  1 settings made for volume
set atom 320 mass 467.91784367382325626749661751091480
  1 settings made for mass
set atom 321 volume 0.52204801615358631394769872713368
  1 settings made for volume
set atom 321 mass 469.84321453822769854014040902256966
  1 settings made for mass
set atom 322 volume 0.52805874112865058833676812355407
  1 settings made for volume
set atom 322 mass 475.25286701578551173952291719615459
  1 settings made for mass
set atom 323 volume 0.52504343542697595736967741686385
  1 settings made for volume
set atom 323 mass 472.53909188427837761992122977972031
  1 settings made for mass
set atom 324 volume 0.52440144726226323168560838894336
  1 settings made for volume
set atom 324 mass 471.96130253603689652663888409733772
  1 settings made for mass
set atom 325 volume 0.52356197773980450715924916949007
  1 settings made for volume
set atom 325 mass 471.20577996582403557113138958811760
  1 settings made for mass
set atom 326 volume 0.52816212201960366368069799136720
  1 settings made for volume
set atom 326 mass 475.34590981764330308578792028129101
  1 settings made for mass
set atom 327 volume 0.53021417650120605813413021678571
  1 settings made for volume
set atom 327 mass 477.19275885108544343893299810588360
  1 settings made for mass
set atom 328 volume 0.51972078245203834345744553502300
  1 settings made for volume
set atom 328 mass 467.74870420683453176025068387389183
  1 settings made for mass
set atom 329 volume 0.52436313673485590580725101972348
  1 settings made for volume
set atom 329 mass 471.92682306137032810511300340294838
  1 settings made for mass
set atom 330 volume 0.52756451133878545789457348291762
  1 settings made for volume
set atom 330 mass 474.80806020490689434154774062335491
  1 settings made for mass
set atom 331 volume 0.52494910548835005403844888860476
  1 settings made for volume
set atom 331 mass 472.45419493951504819051478989422321
  1 settings made for mass
set atom 332 volume 0.51522745510055578677111043361947
  1 settings made for volume
set atom 332 mass 463.70470959050021519942674785852432
  1 settings made for mass
set atom 333 volume 0.52117617081712142024230161041487
  1 settings made for volume
set atom 333 mass 469.05855373540930486342404037714005
  1 settings made for mass
set atom 334 volume 0.52216024493593660160684066795511
  1 settings made for volume
set atom 334 mass 469.94422044234295299247605726122856
  1 settings made for mass
set atom 335 volume 0.52280128676131187859255078365095
  1 settings made for volume
set atom 335 mass 470.52115808518067296972731128334999
  1 settings made for mass
set atom 336 volume 0.52759621529355449354170559672639
  1 settings made for volume
set atom 336 mass 474.83659376419905129296239465475082
  1 settings made for mass
set atom 337 volume 0.53002213922919072519590599767980
  1 settings made for volume
set atom 337 mass 477.01992530627165933765354566276073
  1 settings made for mass
set atom 338 volume 0.52510395873632254026830423754291
  1 settings made for volume
set atom 338 mass 472.59356286269030533730983734130859
  1 settings made for mass
set atom 339 volume 0.52651857556429237927630992999184
  1 settings made for volume
set atom 339 mass 473.86671800786314179276814684271812
  1 settings made for mass
set atom 340 volume 0.52749715220113990721273466988350
  1 settings made for volume
set atom 340 mass 474.74743698102594180454616434872150
  1 settings made for mass
set atom 341 volume 0.52199097380412429192375611819443
  1 settings made for volume
set atom 341 mass 469.79187642371186939271865412592888
  1 settings made for mass
set atom 342 volume 0.52143884365041293094122920592781
  1 settings made for volume
set atom 342 mass 469.29495928537164672889048233628273
  1 settings made for mass
set atom 343 volume 0.52403857200627623758037998413783
  1 settings made for volume
set atom 343 mass 471.63471480564862758910749107599258
  1 settings made for mass
set atom 344 volume 0.52529721508295346144024051682209
  1 settings made for volume
set atom 344 mass 472.76749357465808998313150368630886
  1 settings made for mass
set atom 345 volume 0.51986419066835731772613371504121
  1 settings made for volume
set atom 345 mass 467.87777160152160149664268828928471
  1 settings made for mass
set atom 346 volume 0.52606886795231067033284944045590
  1 settings made for volume
set atom 346 mass 473.46198115707960596409975551068783
  1 settings made for mass
set atom 347 volume 0.52292999986535226852879532088991
  1 settings made for volume
set atom 347 mass 470.63699987881705055769998580217361
  1 settings made for mass
set atom 348 volume 0.52173060084106703815365335685783
  1 settings made for volume
set atom 348 mass 469.55754075696034988141036592423916
  1 settings made for mass
set atom 349 volume 0.52682889337736393819966451701475
  1 settings made for volume
set atom 349 mass 474.14600403962754171516280621290207
  1 settings made for mass
set atom 350 volume 0.52395003960556485456123709809617
  1 settings made for volume
set atom 350 mass 471.55503564500838820094941183924675
  1 settings made for mass
set atom 351 volume 0.52255262556463377698889871680876
  1 settings made for volume
set atom 351 mass 470.29736300817040728361462242901325
  1 settings made for mass
set atom 352 volume 0.52257903989909293418492097771377
  1 settings made for volume
set atom 352 mass 470.32113590918362433512811549007893
  1 settings made for mass
set atom 353 volume 0.52250322859011677500973291898845
  1 settings made for volume
set atom 353 mass 470.25290573110510194965172559022903
  1 settings made for mass
set atom 354 volume 0.52675955753963499272884973834152
  1 settings made for volume
set atom 354 mass 474.08360178567147613648558035492897
  1 settings made for mass
set atom 355 volume 0.51803903246373439461791576832184
  1 settings made for volume
set atom 355 mass 466.23512921736096359381917864084244
  1 settings made for mass
set atom 356 volume 0.52209790248481824370685444591800
  1 settings made for volume
set atom 356 mass 469.88811223633643976427265442907810
  1 settings made for mass
set atom 357 volume 0.51750571016209989672063329635421
  1 settings made for volume
set atom 357 mass 465.75513914588992747667361982166767
  1 settings made for mass
set atom 358 volume 0.52664210766399988106201135451556
  1 settings made for volume
set atom 358 mass 473.97789689759991915707360021770000
  1 settings made for mass
set atom 359 volume 0.51919808005111656168395484201028
  1 settings made for volume
set atom 359 mass 467.27827204600492905228747986257076
  1 settings made for mass
set atom 360 volume 0.52100160490481584041333462664625
  1 settings made for volume
set atom 360 mass 468.90144441433426436560694128274918
  1 settings made for mass
set atom 361 volume 0.52050146695876853275564144496457
  1 settings made for volume
set atom 361 mass 468.45132026289167015420389361679554
  1 settings made for mass
set atom 362 volume 0.52689956852053154712223204114707
  1 settings made for volume
set atom 362 mass 474.20961166847837375826202332973480
  1 settings made for mass
set atom 363 volume 0.52339653633593252735067835601512
  1 settings made for volume
set atom 363 mass 471.05688270233929415553575381636620
  1 settings made for mass
set atom 364 volume 0.52285348873697934379833895945922
  1 settings made for volume
set atom 364 mass 470.56813986328143073478713631629944
  1 settings made for mass
set atom 365 volume 0.52174471412848621998392673049239
  1 settings made for volume
set atom 365 mass 469.57024271563761885772692039608955
  1 settings made for mass
set atom 366 volume 0.52623892069388333858626083383569
  1 settings made for volume
set atom 366 mass 473.61502862449498252317425794899464
  1 settings made for mass
set atom 367 volume 0.51920883400695072573682864458533
  1 settings made for volume
set atom 367 mass 467.28795060625566293310839682817459
  1 settings made for mass
set atom 368 volume 0.52151303861379982862445103819482
  1 settings made for volume
set atom 368 mass 469.36173475241986352557432837784290
  1 settings made for mass
set atom 369 volume 0.52549463755251990537686879179091
  1 settings made for volume
set atom 369 mass 472.94517379726789840788114815950394
  1 settings made for mass
set atom 370 volume 0.51849578919640426644122044308460
  1 settings made for volume
set atom 370 mass 466.64621027676383846483076922595501
  1 settings made for mass
set atom 371 volume 0.52364687020414624196718023085850
  1 settings made for volume
set atom 371 mass 471.28218318373160400369670242071152
  1 settings made for mass
set atom 372 volume 0.52210434934193716838279897274333
  1 settings made for volume
set atom 372 mass 469.89391440774346619946300052106380
  1 settings made for mass
set atom 373 volume 0.52910100915666813392590483999811
  1 settings made for volume
set atom 373 mass 476.19090824100129566431860439479351
  1 settings made for mass
set atom 374 volume 0.52717184818489548625564111716812
  1 settings made for volume
set atom 374 mass 474.45466336640595272911014035344124
  1 settings made for mass
set atom 375 volume 0.52364505835670649425139799859608
  1 settings made for volume
set atom 375 mass 471.28055252103587235978920944035053
  1 settings made for mass
set atom 376 volume 0.52467336501851047358968571643345
  1 settings made for volume
set atom 376 mass 472.20602851665944399428553879261017
  1 settings made for mass
set atom 377 volume 0.52278572263784217621918060103781
  1 settings made for volume
set atom 377 mass 470.50715037405797147584962658584118
  1 settings made for mass
set atom 378 volume 0.53357211813843852254990451910999
  1 settings made for volume
set atom 378 mass 480.21490632459466496584354899823666
  1 settings made for mass
set atom 379 volume 0.52298674413359336199391691479832
  1 settings made for volume
set atom 379 mass 470.68806972023401158367050811648369
  1 settings made for mass
set atom 380 volume 0.51729562633556713802107651645201
  1 settings made for volume
set atom 380 mass 465.56606370201041045220335945487022
  1 settings made for mass
set atom 381 volume 0.52174238151909702043695915563148
  1 settings made for volume
set atom 381 mass 469.56814336718730373831931501626968
  1 settings made for mass
set atom 382 volume 0.52217259594415532664157808540040
  1 settings made for volume
set atom 382 mass 469.95533634973980952054262161254883
  1 settings made for mass
set atom 383 volume 0.51860615165483614497077269334113
  1 settings made for volume
set atom 383 mass 466.74553648935250294016441330313683
  1 settings made for mass
set atom 384 volume 0.52448032730227911457632217206992
  1 settings made for volume
set atom 384 mass 472.03229457205122798768570646643639
  1 settings made for mass
set atom 385 volume 0.52798244202454358564580161328195
  1 settings made for volume
set atom 385 mass 475.18419782208923152211355045437813
  1 settings made for mass
set atom 386 volume 0.52198015226322613813181305886246
  1 settings made for volume
set atom 386 mass 469.78213703690352076591807417571545
  1 settings made for mass
set atom 387 volume 0.51953851340528178770483691550908
  1 settings made for volume
set atom 387 mass 467.58466206475361559569137170910835
  1 settings made for mass
set atom 388 volume 0.52128992489738545934585545182927
  1 settings made for volume
set atom 388 mass 469.16093240764689653587993234395981
  1 settings made for mass
set atom 389 volume 0.52463129236012995271210002101725
  1 settings made for volume
set atom 389 mass 472.16816312411697253992315381765366
  1 settings made for mass
set atom 390 volume 0.52319534948678814156863836615230
  1 settings made for volume
set atom 390 mass 470.87581453810935272485949099063873
  1 settings made for mass
set atom 391 volume 0.51747181360233496238976158565492
  1 settings made for volume
set atom 391 mass 465.72463224210144971948466263711452
  1 settings made for mass
set atom 392 volume 0.52536655934397458178608530943166
  1 settings made for volume
set atom 392 mass 472.82990340957712760427966713905334
  1 settings made for mass
set atom 393 volume 0.52543198066274643398543275907286
  1 settings made for volume
set atom 393 mass 472.88878259647179902458447031676769
  1 settings made for mass
set atom 394 volume 0.51793683248986110978506758328876
  1 settings made for volume
set atom 394 mass 466.14314924087500457972055301070213
  1 settings made for mass
set atom 395 volume 0.52411800309121825414138129417552
  1 settings made for volume
set atom 395 mass 471.70620278209645448441733606159687
  1 settings made for mass
set atom 396 volume 0.52597512248719657801387938889093
  1 settings made for volume
set atom 396 mass 473.37761023847690466936910524964333
  1 settings made for mass
set atom 397 volume 0.52537668273226367787742674408946
  1 settings made for volume
set atom 397 mass 472.83901445903728699704515747725964
  1 settings made for mass
set atom 398 volume 0.52227604512510339418440707959235
  1 settings made for volume
set atom 398 mass 470.04844061259302634425694122910500
  1 settings made for mass
set atom 399 volume 0.52646270931865601916399555193493
  1 settings made for volume
set atom 399 mass 473.81643838679042346484493464231491
  1 settings made for mass
set atom 400 volume 0.51948337303174385581883143458981
  1 settings made for volume
set atom 400 mass 467.53503572856948267144616693258286
  1 settings made for mass
set atom 401 volume 0.51742354761500142235064458873239
  1 settings made for volume
set atom 401 mass 465.68119285350127256606356240808964
  1 settings made for mass
set atom 402 volume 0.52677840927625618760998804646078
  1 settings made for volume
set atom 402 mass 474.10056834863058838891447521746159
  1 settings made for mass
set atom 403 volume 0.52394178573934380160892487765523
  1 settings made for volume
set atom 403 mass 471.54760716540943121799500659108162
  1 settings made for mass
set atom 404 volume 0.52574619701274349914399408589816
  1 settings made for volume
set atom 404 mass 473.17157731146915011777309700846672
  1 settings made for mass
set atom 405 volume 0.52079451004532595348450740857515
  1 settings made for volume
set atom 405 mass 468.71505904079333504341775551438332
  1 settings made for mass
set atom 406 volume 0.52868425226744975020665151532739
  1 settings made for volume
set atom 406 mass 475.81582704070478939684107899665833
  1 settings made for mass
set atom 407 volume 0.52174742605438761966496485911193
  1 settings made for volume
set atom 407 mass 469.57268344894885103713022544980049
  1 settings made for mass
set atom 408 volume 0.52568833689944582943098794203252
  1 settings made for volume
set atom 408 mass 473.11950320950126069874386303126812
  1 settings made for mass
set atom 409 volume 0.52006863346409626380761892505689
  1 settings made for volume
set atom 409 mass 468.06177011768664897317648865282536
  1 settings made for mass
set atom 410 volume 0.52047402008463938827276251686271
  1 settings made for volume
set atom 410 mass 468.42661807617542990556103177368641
  1 settings made for mass
set atom 411 volume 0.52075502425305819631518033929751
  1 settings made for volume
set atom 411 mass 468.67952182775235314693418331444263
  1 settings made for mass
set atom 412 volume 0.52271493852242933986218531572376
  1 settings made for volume
set atom 412 mass 470.44344467018640898459125310182571
  1 settings made for mass
set atom 413 volume 0.52500966367059276329598560550949
  1 settings made for volume
set atom 413 mass 472.50869730353349495999282225966454
  1 settings made for mass
set atom 414 volume 0.52680284383028264105774951531203
  1 settings made for volume
set atom 414 mass 474.12255944725438894238322973251343
  1 settings made for mass
set atom 415 volume 0.52674291205749734778862602979643
  1 settings made for volume
set atom 415 mass 474.06862085174759613437345251441002
  1 settings made for mass
set atom 416 volume 0.52548568800330897055061996070435
  1 settings made for volume
set atom 416 mass 472.93711920297806727830902673304081
  1 settings made for mass
set atom 417 volume 0.52544850888349181605718740684097
  1 settings made for volume
set atom 417 mass 472.90365799514262334923841990530491
  1 settings made for mass
set atom 418 volume 0.52278850015625388802931183818146
  1 settings made for volume
set atom 418 mass 470.50965014062848013054463081061840
  1 settings made for mass
set atom 419 volume 0.52172218821784555053966414561728
  1 settings made for volume
set atom 419 mass 469.54996939606098749209195375442505
  1 settings made for mass
set atom 420 volume 0.52334634966636972563946983427741
  1 settings made for volume
set atom 420 mass 471.01171469973274952280917204916477
  1 settings made for mass
set atom 421 volume 0.52529013839472604718849879645859
  1 settings made for volume
set atom 421 mass 472.76112455525344557827338576316833
  1 settings made for mass
set atom 422 volume 0.52173102184016406646094310417539
  1 settings made for volume
set atom 422 mass 469.55791965614764649217249825596809
  1 settings made for mass
set atom 423 volume 0.52886839198409640872000636591110
  1 settings made for volume
set atom 423 mass 475.98155278568674475536681711673737
  1 settings made for mass
set atom 424 volume 0.52856547108068563378679982633912
  1 settings made for volume
set atom 424 mass 475.70892397261707174038747325539589
  1 settings made for mass
set atom 425 volume 0.52605491002469706440791696877568
  1 settings made for volume
set atom 425 mass 473.44941902222734597671660594642162
  1 settings made for mass
set atom 426 volume 0.52523566326466741838174812073703
  1 settings made for volume
set atom 426 mass 472.71209693820065922409412451088428
  1 settings made for mass
set atom 427 volume 0.52086191346300481086473155301064
  1 settings made for volume
set atom 427 mass 468.77572211670434398911311291158199
  1 settings made for mass
set atom 428 volume 0.51597750483238769003691004400025
  1 settings made for volume
set atom 428 mass 464.37975434914892503002192825078964
  1 settings made for mass
set atom 429 volume 0.52106606150704792845829160796711
  1 settings made for volume
set atom 429 mass 468.95945535634314182971138507127762
  1 settings made for mass
set atom 430 volume 0.51934333989653680418996373191476
  1 settings made for volume
set atom 430 mass 467.40900590688312377096735872328281
  1 settings made for mass
set atom 431 volume 0.52602151528240514988254972195136
  1 settings made for volume
set atom 431 mass 473.41936375416463533838395960628986
  1 settings made for mass
set atom 432 volume 0.52873201007242742743841290575801
  1 settings made for volume
set atom 432 mass 475.85880906518468691501766443252563
  1 settings made for mass
set atom 433 volume 0.52451899760664033589563359782915
  1 settings made for volume
set atom 433 mass 472.06709784597632051372784189879894
  1 settings made for mass
set atom 434 volume 0.52230746315060838647070795559557
  1 settings made for volume
set atom 434 mass 470.07671683554752917189034633338451
  1 settings made for mass
set atom 435 volume 0.52043316293917218917641775988159
  1 settings made for volume
set atom 435 mass 468.38984664525497692011413164436817
  1 settings made for mass
set atom 436 volume 0.52187969480092610830013200029498
  1 settings made for volume
set atom 436 mass 469.69172532083348414744250476360321
  1 settings made for mass
set atom 437 volume 0.52580311136521329373749722435605
  1 settings made for volume
set atom 437 mass 473.22280022869193771839491091668606
  1 settings made for mass
set atom 438 volume 0.52350659423567313943692624889081
  1 settings made for volume
set atom 438 mass 471.15593481210584059226675890386105
  1 settings made for mass
set atom 439 volume 0.52952777737899547894073748466326
  1 settings made for volume
set atom 439 mass 476.57499964109592838212847709655762
  1 settings made for mass
set atom 440 volume 0.52087997814684150466035816862131
  1 settings made for volume
set atom 440 mass 468.79198033215737950740731321275234
  1 settings made for mass
set atom 441 volume 0.51517590035857652175366183655569
  1 settings made for volume
set atom 441 mass 463.65831032271887579554459080100060
  1 settings made for mass
set atom 442 volume 0.52404757992166506319620111753466
  1 settings made for volume
set atom 442 mass 471.64282192949855243568890728056431
  1 settings made for mass
set atom 443 volume 0.52037752878228593633735954426811
  1 settings made for volume
set atom 443 mass 468.33977590405731916689546778798103
  1 settings made for mass
set atom 444 volume 0.52525961678280841393728906041360
  1 settings made for volume
set atom 444 mass 472.73365510452759963300195522606373
  1 settings made for mass
set atom 445 volume 0.52406918796951718064747183234431
  1 settings made for volume
set atom 445 mass 471.66226917256545903001097030937672
  1 settings made for mass
set atom 446 volume 0.52840509686280401346891721914290
  1 settings made for volume
set atom 446 mass 475.56458717652361656291759572923183
  1 settings made for mass
set atom 447 volume 0.51784933269973509872841077594785
  1 settings made for volume
set atom 447 mass 466.06439942976157908560708165168762
  1 settings made for mass
set atom 448 volume 0.52502712921588912120540726391482
  1 settings made for volume
set atom 448 mass 472.52441629430018110724631696939468
  1 settings made for mass
set atom 449 volume 0.52578366878962046193635160307167
  1 settings made for volume
set atom 449 mass 473.20530191065842018360854126513004
  1 settings made for mass
set atom 450 volume 0.51952140510416122687331608176464
  1 settings made for volume
set atom 450 mass 467.56926459374511750866076909005642
  1 settings made for mass
set atom 451 volume 0.52693926052588102582063811496482
  1 settings made for volume
set atom 451 mass 474.24533447329292812355561181902885
  1 settings made for mass
set atom 452 volume 0.53059973525190817777996699078358
  1 settings made for volume
set atom 452 mass 477.53976172671735866970266215503216
  1 settings made for mass
set atom 453 volume 0.52422577681276283367850510330754
  1 settings made for volume
set atom 453 mass 471.80319913148656496559851802885532
  1 settings made for mass
set atom 454 volume 0.52687411161540220749799345867359
  1 settings made for volume
set atom 454 mass 474.18670045386198808046174235641956
  1 settings made for mass
set atom 455 volume 0.52420328520024217500150598425535
  1 settings made for volume
set atom 455 mass 471.78295668021797837354824878275394
  1 settings made for mass
set atom 456 volume 0.51884578235385614419783451012336
  1 settings made for volume
set atom 456 mass 466.96120411847050490905530750751495
  1 settings made for mass
set atom 457 volume 0.52539580771141425330483798461501
  1 settings made for volume
set atom 457 mass 472.85622694027284751427941955626011
  1 settings made for mass
set atom 458 volume 0.52199561122589488437739646542468
  1 settings made for volume
set atom 458 mass 469.79605010330539016649709083139896
  1 settings made for mass
set atom 459 volume 0.52253666373152385382638840383152
  1 settings made for volume
set atom 459 mass 470.28299735837146045014378614723682
  1 settings made for mass
set atom 460 volume 0.52512224384499850415863875241484
  1 settings made for volume
set atom 460 mass 472.61001946049867683541378937661648
  1 settings made for mass
set atom 461 volume 0.52607927936705034532849367678864
  1 settings made for volume
set atom 461 mass 473.47135143034529392025433480739594
  1 settings made for mass
set atom 462 volume 0.51841338055986019295318101285375
  1 settings made for volume
set atom 462 mass 466.57204250387417232559528201818466
  1 settings made for mass
set atom 463 volume 0.52872427056534665457121491272119
  1 settings made for volume
set atom 463 mass 475.85184350881200998628628440201283
  1 settings made for mass
set atom 464 volume 0.52578015716553727632032178007648
  1 settings made for volume
set atom 464 mass 473.20214144898352515156148001551628
  1 settings made for mass
set atom 465 volume 0.52284899032921872130685869706213
  1 settings made for volume
set atom 465 mass 470.56409129629685139661887660622597
  1 settings made for mass
set atom 466 volume 0.52663543594490358490389780854457
  1 settings made for volume
set atom 466 mass 473.97189235041321353492094203829765
  1 settings made for mass
set atom 467 volume 0.52057638293508701199385768632055
  1 settings made for volume
set atom 467 mass 468.51874464157833699573529884219170
  1 settings made for mass
set atom 468 volume 0.52376893596163176525237759051379
  1 settings made for volume
set atom 468 mass 471.39204236546856918721459805965424
  1 settings made for mass
set atom 469 volume 0.52636066573776718602317714612582
  1 settings made for volume
set atom 469 mass 473.72459916399049006940913386642933
  1 settings made for mass
set atom 470 volume 0.52246545712846292897069133687182
  1 settings made for volume
set atom 470 mass 470.21891141561661697778617963194847
  1 settings made for mass
set atom 471 volume 0.52282094198766071446726755311829
  1 settings made for volume
set atom 471 mass 470.53884778889465678730630315840244
  1 settings made for mass
set atom 472 volume 0.52083818896124067787667399898055
  1 settings made for volume
set atom 472 mass 468.75437006511663184937788173556328
  1 settings made for mass
set atom 473 volume 0.52450216663422544183248419358279
  1 settings made for volume
set atom 473 mass 472.05194997080292296232073567807674
  1 settings made for mass
set atom 474 volume 0.52268117934921010103721528139431
  1 settings made for volume
set atom 474 mass 470.41306141428907494628219865262508
  1 settings made for mass
set atom 475 volume 0.52299135276299646424291722723865
  1 settings made for volume
set atom 475 mass 470.69221748669679072918370366096497
  1 settings made for mass
set atom 476 volume 0.52900608901671108963427059279638
  1 settings made for volume
set atom 476 mass 476.10548011503999532578745856881142
  1 settings made for mass
set atom 477 volume 0.52518169681281867688937836646801
  1 settings made for volume
set atom 477 mass 472.66352713153679587776423431932926
  1 settings made for mass
set atom 478 volume 0.52182642123799527489325100759743
  1 settings made for volume
set atom 478 mass 469.64377911419575184481800533831120
  1 settings made for mass
set atom 479 volume 0.52509372207031279611300078613567
  1 settings made for volume
set atom 479 mass 472.58434986328148852408048696815968
  1 settings made for mass
set atom 480 volume 0.51755084162750242260386812631623
  1 settings made for volume
set atom 480 mass 465.79575746475217101760790683329105
  1 settings made for mass
set atom 481 volume 0.51792776906247295354290827162913
  1 settings made for volume
set atom 481 mass 466.13499215622567817263188771903515
  1 settings made for mass
set atom 482 volume 0.52164876037565599542489280793234
  1 settings made for volume
set atom 482 mass 469.48388433809037678656750358641148
  1 settings made for mass
set atom 483 volume 0.52046845765577631759413179679541
  1 settings made for volume
set atom 483 mass 468.42161189019867606475600041449070
  1 settings made for mass
set atom 484 volume 0.52217895051430884834076096012723
  1 settings made for volume
set atom 484 mass 469.96105546287793686133227311074734
  1 settings made for mass
set atom 485 volume 0.52626725062649870601205748243956
  1 settings made for volume
set atom 485 mass 473.64052556384882564088911749422550
  1 settings made for mass
set atom 486 volume 0.52464067336382425033036724926205
  1 settings made for volume
set atom 486 mass 472.17660602744183506729314103722572
  1 settings made for mass
set atom 487 volume 0.51785485584887480658977665370912
  1 settings made for volume
set atom 487 mass 466.06937026398730949949822388589382
  1 settings made for mass
set atom 488 volume 0.52255063922892663885733099959907
  1 settings made for volume
set atom 488 mass 470.29557530603398163293604739010334
  1 settings made for mass
set atom 489 volume 0.52944996741000704965074419305893
  1 settings made for volume
set atom 489 mass 476.50497066900635445563239045441151
  1 settings made for mass
set atom 490 volume 0.52120925030146425527277642686386
  1 settings made for volume
set atom 490 mass 469.08832527131784217999665997922421
  1 settings made for mass
set atom 491 volume 0.51488197545932334886487069525174
  1 settings made for volume
set atom 491 mass 463.39377791339103396239806897938251
  1 settings made for mass
set atom 492 volume 0.51674465705805627813163027894916
  1 settings made for volume
set atom 492 mass 465.07019135225067429928458295762539
  1 settings made for mass
set atom 493 volume 0.51971683896544396130678933332092
  1 settings made for volume
set atom 493 mass 467.74515506889957805469748564064503
  1 settings made for mass
set atom 494 volume 0.52577928286182273875937198681640
  1 settings made for volume
set atom 494 mass 473.20135457564043690581456758081913
  1 settings made for mass
set atom 495 volume 0.52162541500943260253109201585175
  1 settings made for volume
set atom 495 mass 469.46287350848933783709071576595306
  1 settings made for mass
set atom 496 volume 0.52432754887315902170286108230357
  1 settings made for volume
set atom 496 mass 471.89479398584313685205415822565556
  1 settings made for mass
set atom 497 volume 0.52299538547475066252445685677230
  1 settings made for volume
set atom 497 mass 470.69584692727562469372060149908066
  1 settings made for mass
set atom 498 volume 0.52212557825011696177597286805394
  1 settings made for volume
set atom 498 mass 469.91302042510528735874686390161514
  1 settings made for mass
set atom 499 volume 0.52823381362468457833614365881658
  1 settings made for volume
set atom 499 mass 475.41043226221614759197109378874302
  1 settings made for mass
set atom 500 volume 0.51900875759219100569197280492517
  1 settings made for volume
set atom 500 mass 467.10788183297188425058266147971153
  1 settings made for mass
set atom 501 volume 0.51932575208463427340888074468239
  1 settings made for volume
set atom 501 mass 467.39317687617085539386607706546783
  1 settings made for mass
set atom 502 volume 0.52260730288800338882992946309969
  1 settings made for volume
set atom 502 mass 470.34657259920305705236387439072132
  1 settings made for mass
set atom 503 volume 0.52649943151680367314781960885739
  1 settings made for volume
set atom 503 mass 473.84948836512330672121606767177582
  1 settings made for mass
set atom 504 volume 0.52718701196239015072109168613679
  1 settings made for volume
set atom 504 mass 474.46831076615114852756960317492485
  1 settings made for mass
set atom 505 volume 0.51726274294990282065498377050972
  1 settings made for volume
set atom 505 mass 465.53646865491253947766381315886974
  1 settings made for mass
set atom 506 volume 0.52535992082337612529840953357052
  1 settings made for volume
set atom 506 mass 472.82392874103851454492541961371899
  1 settings made for mass
set atom 507 volume 0.52101848931999950043092439955217
  1 settings made for volume
set atom 507 mass 468.91664038799956415459746494889259
  1 settings made for mass
set atom 508 volume 0.52265622178661297336788038592204
  1 settings made for volume
set atom 508 mass 470.39059960795168535696575418114662
  1 settings made for mass
set atom 509 volume 0.51745831920997087394198388210498
  1 settings made for volume
set atom 509 mass 465.71248728897376167878974229097366
  1 settings made for mass
set atom 510 volume 0.52234992479785002927883397205733
  1 settings made for volume
set atom 510 mass 470.11493231806502990366425365209579
  1 settings made for mass
set atom 511 volume 0.52079999463514403679198494501179
  1 settings made for volume
set atom 511 mass 468.71999517162964821181958541274071
  1 settings made for mass
set atom 512 volume 0.52115707762891749776912320157862
  1 settings made for volume
set atom 512 mass 469.04136986602577508165268227458000
  1 settings made for mass
set atom 513 volume 0.52814725328149580985126476662117
  1 settings made for volume
set atom 513 mass 475.33252795334624352108221501111984
  1 settings made for mass
set atom 514 volume 0.52722992756980469053473825624678
  1 settings made for volume
set atom 514 mass 474.50693481282422681033494882285595
  1 settings made for mass
set atom 515 volume 0.52526509279988276013284576038131
  1 settings made for volume
set atom 515 mass 472.73858351989446191510069184005260
  1 settings made for mass
set atom 516 volume 0.51977638704895234855740682178293
  1 settings made for volume
set atom 516 mass 467.79874834405711681029060855507851
  1 settings made for mass
set atom 517 volume 0.51970608007508745096458824264118
  1 settings made for volume
set atom 517 mass 467.73547206757871208537835627794266
  1 settings made for mass
set atom 518 volume 0.52451239657221737644476888817735
  1 settings made for volume
set atom 518 mass 472.06115691499564945843303576111794
  1 settings made for mass
set atom 519 volume 0.51745189178639627858302674212609
  1 settings made for volume
set atom 519 mass 465.70670260775665383334853686392307
  1 settings made for mass
set atom 520 volume 0.52329023528939977438767527928576
  1 settings made for volume
set atom 520 mass 470.96121176045977563262567855417728
  1 settings made for mass
set atom 521 volume 0.52118300553975249744809161711601
  1 settings made for volume
set atom 521 mass 469.06470498577726857547531835734844
  1 settings made for mass
set atom 522 volume 0.52475136801228960958809466319508
  1 settings made for volume
set atom 522 mass 472.27623121106063308616285212337971
  1 settings made for mass
set atom 523 volume 0.51980279199529078049124564131489
  1 settings made for volume
set atom 523 mass 467.82251279576172464658156968653202
  1 settings made for mass
set atom 524 volume 0.52301236517084592758664030043292
  1 settings made for volume
set atom 524 mass 470.71112865376130685035604983568192
  1 settings made for mass
set atom 525 volume 0.51796914781633585089792859434965
  1 settings made for volume
set atom 525 mass 466.17223303470228756850701756775379
  1 settings made for mass
set atom 526 volume 0.52380767322990751111433382902760
  1 settings made for volume
set atom 526 mass 471.42690590691677243739832192659378
  1 settings made for mass
set atom 527 volume 0.52285420087978673464590428920928
  1 settings made for volume
set atom 527 mass 470.56878079180808072123909369111061
  1 settings made for mass
set atom 528 volume 0.51812863194319058735004546178970
  1 settings made for volume
set atom 528 mass 466.31576874887150552240200340747833
  1 settings made for mass
set atom 529 volume 0.52296608095899488333202498324681
  1 settings made for volume
set atom 529 mass 470.66947286309539322246564552187920
  1 settings made for mass
set atom 530 volume 0.52390659733776656636905499908607
  1 settings made for volume
set atom 530 mass 471.51593760398992571936105377972126
  1 settings made for mass
set atom 531 volume 0.52077370011880164124562497818260
  1 settings made for volume
set atom 531 mass 468.69633010692149355236324481666088
  1 settings made for mass
set atom 532 volume 0.52613381187448204912016080925241
  1 settings made for volume
set atom 532 mass 473.52043068703386552442680113017559
  1 settings made for mass
set atom 533 volume 0.52142596618365566474295746957068
  1 settings made for volume
set atom 533 mass 469.28336956529011558814090676605701
  1 settings made for mass
set atom 534 volume 0.51768922926899407777057149360189
  1 settings made for volume
set atom 534 mass 465.92030634209464778905385173857212
  1 settings made for mass
set atom 535 volume 0.52239780551997583302181737963110
  1 settings made for volume
set atom 535 mass 470.15802496797823550878092646598816
  1 settings made for mass
set atom 536 volume 0.52052011628822592026466509196325
  1 settings made for volume
set atom 536 mass 468.46810465940330914236255921423435
  1 settings made for mass
set atom 537 volume 0.52133263936353901879527938945103
  1 settings made for volume
set atom 537 mass 469.19937542718508893813122995197773
  1 settings made for mass
set atom 538 volume 0.51880385485789215493923620670103
  1 settings made for volume
set atom 538 mass 466.92346937210294299802626483142376
  1 settings made for mass
set atom 539 volume 0.52615052732465072971024255821249
  1 settings made for volume
set atom 539 mass 473.53547459218566473282407969236374
  1 settings made for mass
set atom 540 volume 0.51926535851558375256331601121929
  1 settings made for volume
set atom 540 mass 467.33882266402537197791389189660549
  1 settings made for mass
set atom 541 volume 0.52316126683862118618151271220995
  1 settings made for volume
set atom 541 mass 470.84514015475906489882618188858032
  1 settings made for mass
set atom 542 volume 0.52266411256509737182085473250481
  1 settings made for volume
set atom 542 mass 470.39770130858761376657639630138874
  1 settings made for mass
set atom 543 volume 0.52525826820116472415378439109190
  1 settings made for volume
set atom 543 mass 472.73244138104826106427935883402824
  1 settings made for mass
set atom 544 volume 0.52048952152893590561433256880264
  1 settings made for volume
set atom 544 mass 468.44056937604233326055691577494144
  1 settings made for mass
set atom 545 volume 0.52484115381887430640261982262018
  1 settings made for volume
set atom 545 mass 472.35703843698689752272912301123142
  1 settings made for mass
set atom 546 volume 0.52642958637242953656709687493276
  1 settings made for volume
set atom 546 mass 473.78662773518658468674402683973312
  1 settings made for mass
set atom 547 volume 0.52282705341541946264527496168739
  1 settings made for volume
set atom 547 mass 470.54434807387752925933455117046833
  1 settings made for mass
set atom 548 volume 0.52222382178249304729433788452297
  1 settings made for volume
set atom 548 mass 470.00143960424372835404938086867332
  1 settings made for mass
set atom 549 volume 0.52498829033547012024030209431658
  1 settings made for volume
set atom 549 mass 472.48946130192308601181139238178730
  1 settings made for mass
set atom 550 volume 0.52323624005514757229207134514581
  1 settings made for volume
set atom 550 mass 470.91261604963278841751161962747574
  1 settings made for mass
set atom 551 volume 0.52953074220846840791665499637020
  1 settings made for volume
set atom 551 mass 476.57766798762156668090028688311577
  1 settings made for mass
set atom 552 volume 0.52399323491893345927650216253824
  1 settings made for volume
set atom 552 mass 471.59391142704009780572960153222084
  1 settings made for mass
set atom 553 volume 0.51711959633217197129795295040822
  1 settings made for volume
set atom 553 mass 465.40763669895477505633607506752014
  1 settings made for mass
set atom 554 volume 0.52576313943446317811236667694175
  1 settings made for volume
set atom 554 mass 473.18682549101686163339763879776001
  1 settings made for mass
set atom 555 volume 0.52569622663057946621023575062281
  1 settings made for volume
set atom 555 mass 473.12660396752153246779926121234894
  1 settings made for mass
set atom 556 volume 0.52018631816462490569108467752812
  1 settings made for volume
set atom 556 mass 468.16768634816241956286830827593803
  1 settings made for mass
set atom 557 volume 0.52152463078572719457071116266889
  1 settings made for volume
set atom 557 mass 469.37216770715446045869612134993076
  1 settings made for mass
set atom 558 volume 0.52612957476499666586988723793183
  1 settings made for volume
set atom 558 mass 473.51661728849700239152298308908939
  1 settings made for mass
set atom 559 volume 0.52048591078593764436277524509933
  1 settings made for volume
set atom 559 mass 468.43731970734387459742720238864422
  1 settings made for mass
set atom 560 volume 0.52177613139755396609587023704080
  1 settings made for volume
set atom 560 mass 469.59851825779855971632059663534164
  1 settings made for mass
set atom 561 volume 0.52428347456908952484155861384352
  1 settings made for volume
set atom 561 mass 471.85512711218058257145457901060581
  1 settings made for mass
set atom 562 volume 0.51992326411060751922832423588261
  1 settings made for volume
set atom 562 mass 467.93093769954674598920973949134350
  1 settings made for mass
set atom 563 volume 0.52432159358016838801574976969277
  1 settings made for volume
set atom 563 mass 471.88943422215152168064378201961517
  1 settings made for mass
set atom 564 volume 0.52341295489254613393370618723566
  1 settings made for volume
set atom 564 mass 471.07165940329150544130243360996246
  1 settings made for mass
set atom 565 volume 0.52908596189100509654679171944736
  1 settings made for volume
set atom 565 mass 476.17736570190459133300464600324631
  1 settings made for mass
set atom 566 volume 0.52495633325909696331734721752582
  1 settings made for volume
set atom 566 mass 472.46069993318724300479516386985779
  1 settings made for mass
set atom 567 volume 0.52163466137368275088448399401386
  1 settings made for volume
set atom 567 mass 469.47119523631448601008742116391659
  1 settings made for mass
set atom 568 volume 0.52635935080602980207231667009182
  1 settings made for volume
set atom 568 mass 473.72341572542683252322603948414326
  1 settings made for mass
set atom 569 volume 0.52202652256087100912651521866792
  1 settings made for volume
set atom 569 mass 469.82387030478389533527661114931107
  1 settings made for mass
set atom 570 volume 0.52690729462367336122241567863966
  1 settings made for volume
set atom 570 mass 474.21656516130605041325907222926617
  1 settings made for mass
set atom 571 volume 0.51874432018473637384659014060162
  1 settings made for volume
set atom 571 mass 466.86988816626274001464480534195900
  1 settings made for mass
set atom 572 volume 0.52687164809576536583790584700182
  1 settings made for volume
set atom 572 mass 474.18448328618882214868790470063686
  1 settings made for mass
set atom 573 volume 0.52488871010668491923212286565104
  1 settings made for volume
set atom 573 mass 472.39983909601642153575085103511810
  1 settings made for mass
set atom 574 volume 0.52549882751661680657662145677023
  1 settings made for volume
set atom 574 mass 472.94894476495511526081827469170094
  1 settings made for mass
set atom 575 volume 0.52227269282611787915016066108365
  1 settings made for volume
set atom 575 mass 470.04542354350610366964247077703476
  1 settings made for mass
set atom 576 volume 0.52591760338505444405399202878471
  1 settings made for volume
set atom 576 mass 473.32584304654898232911364175379276
  1 settings made for mass
set atom 577 volume 0.52335164627640162748889451904688
  1 settings made for volume
set atom 577 mass 471.01648164876144164736615493893623
  1 settings made for mass
set atom 578 volume 0.52458781860026337806601759439218
  1 settings made for volume
set atom 578 mass 472.12903674023704070350504480302334
  1 settings made for mass
set atom 579 volume 0.52151116598988989103702351712855
  1 settings made for volume
set atom 579 mass 469.36004939090088328157435171306133
  1 settings made for mass
set atom 580 volume 0.52595793389179756882612082335982
  1 settings made for volume
set atom 580 mass 473.36214050261781949302530847489834
  1 settings made for mass
set atom 581 volume 0.52336028577842896858385302039096
  1 settings made for volume
set atom 581 mass 471.02425720058607794271665625274181
  1 settings made for mass
set atom 582 volume 0.52606037512279468781883906558505
  1 settings made for volume
set atom 582 mass 473.45433761051521059926017187535763
  1 settings made for mass
set atom 583 volume 0.52588011530511680202693014507531
  1 settings made for volume
set atom 583 mass 473.29210377460509562297374941408634
  1 settings made for mass
set atom 584 volume 0.52058243576158680365750797136570
  1 settings made for volume
set atom 584 mass 468.52419218542814860484213568270206
  1 settings made for mass
set atom 585 volume 0.51957112790896398113460463719093
  1 settings made for volume
set atom 585 mass 467.61401511806758435341180302202702
  1 settings made for mass
set atom 586 volume 0.52039393200832195773841704067308
  1 settings made for volume
set atom 586 mass 468.35453880748974597736378200352192
  1 settings made for mass
set atom 587 volume 0.52065926210697943687932820466813
  1 settings made for volume
set atom 587 mass 468.59333589628147365147015079855919
  1 settings made for mass
set atom 588 volume 0.52017714543467075127836096726242
  1 settings made for volume
set atom 588 mass 468.15943089120366948918672278523445
  1 settings made for mass
set atom 589 volume 0.52095639962563466962564007189940
  1 settings made for volume
set atom 589 mass 468.86075966307117823816952295601368
  1 settings made for mass
set atom 590 volume 0.52336571377569995888734410982579
  1 settings made for volume
set atom 590 mass 471.02914239812997720946441404521465
  1 settings made for mass
set atom 591 volume 0.52127654692257863189297495409846
  1 settings made for volume
set atom 591 mass 469.14889223032076870367745868861675
  1 settings made for mass
set atom 592 volume 0.52662020479517135385094661614858
  1 settings made for volume
set atom 592 mass 473.95818431565419359685620293021202
  1 settings made for mass
set atom 593 volume 0.52461180313362010263489310091245
  1 settings made for volume
set atom 593 mass 472.15062282025809281549300067126751
  1 settings made for mass
set atom 594 volume 0.52717196606093119637392874210491
  1 settings made for volume
set atom 594 mass 474.45476945483807185155455954372883
  1 settings made for mass
set atom 595 volume 0.52498546982235017033247004292207
  1 settings made for volume
set atom 595 mass 472.48692284011514175290358252823353
  1 settings made for mass
set atom 596 volume 0.52562036790974042688162626291160
  1 settings made for volume
set atom 596 mass 473.05833111876637531167943961918354
  1 settings made for mass
set atom 597 volume 0.52539062857221174862587531606550
  1 settings made for volume
set atom 597 mass 472.85156571499055644380860030651093
  1 settings made for mass
set atom 598 volume 0.52056701925267157005094986743643
  1 settings made for volume
set atom 598 mass 468.51031732740443658258300274610519
  1 settings made for mass
set atom 599 volume 0.52137603776190055704375936329598
  1 settings made for volume
set atom 599 mass 469.23843398571051466205972246825695
  1 settings made for mass
set atom 600 volume 0.52332407985023432495097495120717
  1 settings made for volume
set atom 600 mass 470.99167186521088979134219698607922
  1 settings made for mass
set atom 601 volume 0.52305882897675992637687159003690
  1 settings made for volume
set atom 601 mass 470.75294607908392663375707343220711
  1 settings made for mass
set atom 602 volume 0.52622571510062443600475035054842
  1 settings made for volume
set atom 602 mass 473.60314359056201283237896859645844
  1 settings made for mass
set atom 603 volume 0.52267344525185177595005825423868
  1 settings made for volume
set atom 603 mass 470.40610072666657970330561511218548
  1 settings made for mass
set atom 604 volume 0.52027388037116584218466641686973
  1 settings made for volume
set atom 604 mass 468.24649233404926462753792293369770
  1 settings made for mass
set atom 605 volume 0.52468293127784892959653006982990
  1 settings made for volume
set atom 605 mass 472.21463815006404729501809924840927
  1 settings made for mass
set atom 606 volume 0.52441906250308800707671252894215
  1 settings made for volume
set atom 606 mass 471.97715625277919571090023964643478
  1 settings made for mass
set atom 607 volume 0.53144935990295305572317374753766
  1 settings made for volume
set atom 607 mass 478.30442391265773949271533638238907
  1 settings made for mass
set atom 608 volume 0.52798431596911410412786835877341
  1 settings made for volume
set atom 608 mass 475.18588437220267906013759784400463
  1 settings made for mass
set atom 609 volume 0.52545004445662457648325016634772
  1 settings made for volume
set atom 609 mass 472.90504001096212505217408761382103
  1 settings made for mass
set atom 610 volume 0.52697257726421486978551911306567
  1 settings made for volume
set atom 610 mass 474.27531953779339346510823816061020
  1 settings made for mass
set atom 611 volume 0.52282291833099658884265181768569
  1 settings made for volume
set atom 611 mass 470.54062649789693750790320336818695
  1 settings made for mass
set atom 612 volume 0.51811147488505071567743698324193
  1 settings made for volume
set atom 612 mass 466.30032739654564011289039626717567
  1 settings made for mass
set atom 613 volume 0.52712129468440005464202613438829
  1 settings made for volume
set atom 613 mass 474.40916521596005850369692780077457
  1 settings made for mass
set atom 614 volume 0.52400146038708361739821839364595
  1 settings made for volume
set atom 614 mass 471.60131434837524011527420952916145
  1 settings made for mass
set atom 615 volume 0.52863179909385293875345723790815
  1 settings made for volume
set atom 615 mass 475.76861918446763866086257621645927
  1 settings made for mass
set atom 616 volume 0.52676806457948810447078358265571
  1 settings made for volume
set atom 616 mass 474.09125812153928336556418798863888
  1 settings made for mass
set atom 617 volume 0.52626646920193376200103330120328
  1 settings made for volume
set atom 617 mass 473.63982228174040756130125373601913
  1 settings made for mass
set atom 618 volume 0.52251489638132209147869389198604
  1 settings made for volume
set atom 618 mass 470.26340674318987566948635503649712
  1 settings made for mass
set atom 619 volume 0.52636635437523504599255375069333
  1 settings made for volume
set atom 619 mass 473.72971893771153872876311652362347
  1 settings made for mass
set atom 620 volume 0.52236095246704539185600424389122
  1 settings made for volume
set atom 620 mass 470.12485722034085711129591800272465
  1 settings made for mass
set atom 621 volume 0.52445009361101468936539049536805
  1 settings made for volume
set atom 621 mass 472.00508424991323863650904968380928
  1 settings made for mass
set atom 622 volume 0.52339632008750935909802137757652
  1 settings made for volume
set atom 622 mass 471.05668807875844095178763382136822
  1 settings made for mass
set atom 623 volume 0.52461987214960081882253462026711
  1 settings made for volume
set atom 623 mass 472.15788493464071962080197408795357
  1 settings made for mass
set atom 624 volume 0.53100025862493871464664607628947
  1 settings made for volume
set atom 624 mass 477.90023276244482985930517315864563
  1 settings made for mass
set atom 625 volume 0.52314639173688148865437597123673
  1 settings made for volume
set atom 625 mass 470.83175256319333357168943621218204
  1 settings made for mass
set atom 626 volume 0.52234034888329317070088109176140
  1 settings made for volume
set atom 626 mass 470.10631399496384119629510678350925
  1 settings made for mass
set atom 627 volume 0.52774244376965739888873940799385
  1 settings made for volume
set atom 627 mass 474.96819939269164478901075199246407
  1 settings made for mass
set atom 628 volume 0.52148575630907822997528455744032
  1 settings made for volume
set atom 628 mass 469.33718067817039809597190469503403
  1 settings made for mass
set atom 629 volume 0.52348836405587617637280573035241
  1 settings made for volume
set atom 629 mass 471.13952765028858493678853847086430
  1 settings made for mass
set atom 630 volume 0.51973176860234981955244393247995
  1 settings made for volume
set atom 630 mass 467.75859174211484514671610668301582
  1 settings made for mass
set atom 631 volume 0.52460581234814895879026153124869
  1 settings made for volume
set atom 631 mass 472.14523111333403448952594771981239
  1 settings made for mass
set atom 632 volume 0.52521813878055323421278899331810
  1 settings made for volume
set atom 632 mass 472.69632490249790635061799548566341
  1 settings made for mass
set atom 633 volume 0.52538957837096100789153751975391
  1 settings made for volume
set atom 633 mass 472.85062053386491243145428597927094
  1 settings made for mass
set atom 634 volume 0.52358615694450394428827166848350
  1 settings made for volume
set atom 634 mass 471.22754125005354808308766223490238
  1 settings made for mass
set atom 635 volume 0.52552301104263710040953583302326
  1 settings made for volume
set atom 635 mass 472.97070993837337482545990496873856
  1 settings made for mass
set atom 636 volume 0.52206036255666565804034462416894
  1 settings made for volume
set atom 636 mass 469.85432630099910511489724740386009
  1 settings made for mass
set atom 637 volume 0.51819139541413483662779526639497
  1 settings made for volume
set atom 637 mass 466.37225587272132543148472905158997
  1 settings made for mass
set atom 638 volume 0.52184996092323643335220140215824
  1 settings made for volume
set atom 638 mass 469.66496483091276559207472018897533
  1 settings made for mass
set atom 639 volume 0.52612277111848015920259058475494
  1 settings made for volume
set atom 639 mass 473.51049400663214328233152627944946
  1 settings made for mass
set atom 640 volume 0.52833767417031918256498101982288
  1 settings made for volume
set atom 640 mass 475.50390675328725365034188143908978
  1 settings made for mass
set atom 641 volume 0.52649328612032009200305537888198
  1 settings made for volume
set atom 641 mass 473.84395750828809923405060544610023
  1 settings made for mass
set atom 642 volume 0.52185008346212369279015774736763
  1 settings made for volume
set atom 642 mass 469.66507511591134971240535378456116
  1 settings made for mass
set atom 643 volume 0.52469485940671034551741058749030
  1 settings made for volume
set atom 643 mass 472.22537346603928654076298698782921
  1 settings made for mass
set atom 644 volume 0.52018656040563771014717531215865
  1 settings made for volume
set atom 644 mass 468.16790436507392314524622634053230
  1 settings made for mass
set atom 645 volume 0.52548801904485153979607048313483
  1 settings made for volume
set atom 645 mass 472.93921714036639514233684167265892
  1 settings made for mass
set atom 646 volume 0.52489740282634755885737831704319
  1 settings made for volume
set atom 646 mass 472.40766254371283139334991574287415
  1 settings made for mass
set atom 647 volume 0.51882466238297342275842538583674
  1 settings made for volume
set atom 647 mass 466.94219614467607470942311920225620
  1 settings made for mass
set atom 648 volume 0.52262197463090409588204465762828
  1 settings made for volume
set atom 648 mass 470.35977716781366098075523041188717
  1 settings made for mass
set atom 649 volume 0.52875774769898664651179842621787
  1 settings made for volume
set atom 649 mass 475.88197292908796498522860929369926
  1 settings made for mass
set atom 650 volume 0.51733276549388584886202124835108
  1 settings made for volume
set atom 650 mass 465.59948894449723866273416206240654
  1 settings made for mass
set atom 651 volume 0.52154017594977852834148279725923
  1 settings made for volume
set atom 651 mass 469.38615835480067062235320918262005
  1 settings made for mass
set atom 652 volume 0.51867568803042030101124737484497
  1 settings made for volume
set atom 652 mass 466.80811922737825625517871230840683
  1 settings made for mass
set atom 653 volume 0.52030364801597195345550517231459
  1 settings made for volume
set atom 653 mass 468.27328321437477143263095058500767
  1 settings made for mass
set atom 654 volume 0.51842037777330263192965276175528
  1 settings made for volume
set atom 654 mass 466.57833999597238516798825003206730
  1 settings made for mass
set atom 655 volume 0.52476018756696163336528115905821
  1 settings made for volume
set atom 655 mass 472.28416881026544160704361274838448
  1 settings made for mass
set atom 656 volume 0.52066318297137048620726318404195
  1 settings made for volume
set atom 656 mass 468.59686467423341582616558298468590
  1 settings made for mass
set atom 657 volume 0.52390759714302226335291834402597
  1 settings made for volume
set atom 657 mass 471.51683742872000948409549891948700
  1 settings made for mass
set atom 658 volume 0.52558134432117697976138970261673
  1 settings made for volume
set atom 658 mass 473.02320988905927379164495505392551
  1 settings made for mass
set atom 659 volume 0.52258945424181169059352214389946
  1 settings made for volume
set atom 659 mass 470.33050881763051620509941130876541
  1 settings made for mass
set atom 660 volume 0.52557313507069192137777235984686
  1 settings made for volume
set atom 660 mass 473.01582156362275100036640651524067
  1 settings made for mass
set atom 661 volume 0.52293419603842683507366473349975
  1 settings made for volume
set atom 661 mass 470.64077643458415423083351925015450
  1 settings made for mass
set atom 662 volume 0.52269444923282981640966227132594
  1 settings made for volume
set atom 662 mass 470.42500430954680723516503348946571
  1 settings made for mass
set atom 663 volume 0.52467426049771637153185110946652
  1 settings made for volume
set atom 663 mass 472.20683444794474326045019552111626
  1 settings made for mass
set atom 664 volume 0.52668269545189172475829764152877
  1 settings made for volume
set atom 664 mass 474.01442590670257004603627137839794
  1 settings made for mass
set atom 665 volume 0.52252295840509777047344641687232
  1 settings made for volume
set atom 665 mass 470.27066256458800808104570023715496
  1 settings made for mass
set atom 666 volume 0.52879081641587655226999231672380
  1 settings made for volume
set atom 666 mass 475.91173477428890237206360325217247
  1 settings made for mass
set atom 667 volume 0.51969956834082520202855448587798
  1 settings made for volume
set atom 667 mass 467.72961150674268537841271609067917
  1 settings made for mass
set atom 668 volume 0.51695223199175788231229944358347
  1 settings made for volume
set atom 668 mass 465.25700879258209852196159772574902
  1 settings made for mass
set atom 669 volume 0.52430768037143382631626309375861
  1 settings made for volume
set atom 669 mass 471.87691233429046633318648673593998
  1 settings made for mass
set atom 670 volume 0.51634073072376951429873770393897
  1 settings made for volume
set atom 670 mass 464.70665765139256109250709414482117
  1 settings made for mass
set atom 671 volume 0.51454865293830287509280196900363
  1 settings made for volume
set atom 671 mass 463.09378764447257026404258795082569
  1 settings made for mass
set atom 672 volume 0.52308956886230872918019940698287
  1 settings made for volume
set atom 672 mass 470.78061197607786425578524358570576
  1 settings made for mass
set atom 673 volume 0.52395784264409317465549520420609
  1 settings made for volume
set atom 673 mass 471.56205837968383320912835188210011
  1 settings made for mass
set atom 674 volume 0.52228352350688200811390515809762
  1 settings made for volume
set atom 674 mass 470.05517115619380774660385213792324
  1 settings made for mass
set atom 675 volume 0.52246726769368168064033852715511
  1 settings made for volume
set atom 675 mass 470.22054092431352501080255024135113
  1 settings made for mass
set atom 676 volume 0.52502779141446254129732551518828
  1 settings made for volume
set atom 676 mass 472.52501227301627295673824846744537
  1 settings made for mass
set atom 677 volume 0.52210005510213330914837115415139
  1 settings made for volume
set atom 677 mass 469.89004959191998977985349483788013
  1 settings made for mass
set atom 678 volume 0.52397126410918559713536524213850
  1 settings made for volume
set atom 678 mass 471.57413769826700900011928752064705
  1 settings made for mass
set atom 679 volume 0.52228295732814766783036475317203
  1 settings made for volume
set atom 679 mass 470.05466159533290237959590740501881
  1 settings made for mass
set atom 680 volume 0.52207800048383534718965393039980
  1 settings made for volume
set atom 680 mass 469.87020043545180669752880930900574
  1 settings made for mass
set atom 681 volume 0.52912174583324356191837978258263
  1 settings made for volume
set atom 681 mass 476.20957124991917908118921332061291
  1 settings made for mass
set atom 682 volume 0.52953101647856259948099477696815
  1 settings made for volume
set atom 682 mass 476.57791483070633375973557122051716
  1 settings made for mass
set atom 683 volume 0.52416569873117402345030768628931
  1 settings made for volume
set atom 683 mass 471.74912885805662199345533736050129
  1 settings made for mass
set atom 684 volume 0.52610443310451682208395141060464
  1 settings made for volume
set atom 684 mass 473.49398979406515763912466354668140
  1 settings made for mass
set atom 685 volume 0.52754923542004727998744328942848
  1 settings made for volume
set atom 685 mass 474.79431187804254932416370138525963
  1 settings made for mass
set atom 686 volume 0.51863413090142618244726691045798
  1 settings made for volume
set atom 686 mass 466.77071781128358907153597101569176
  1 settings made for mass
set atom 687 volume 0.51603202972345973975620836426970
  1 settings made for volume
set atom 687 mass 464.42882675111377466237172484397888
  1 settings made for mass
set atom 688 volume 0.52733182975979930873222656373400
  1 settings made for volume
set atom 688 mass 474.59864678381939029350178316235542
  1 settings made for mass
set atom 689 volume 0.52373979815611348964665694438736
  1 settings made for volume
set atom 689 mass 471.36581834050213046793942339718342
  1 settings made for mass
set atom 690 volume 0.51908187629019830744425689772470
  1 settings made for volume
set atom 690 mass 467.17368866117845982444123364984989
  1 settings made for mass
set atom 691 volume 0.52577095048322874948354410662432
  1 settings made for volume
set atom 691 mass 473.19385543490585632753209210932255
  1 settings made for mass
set atom 692 volume 0.52590061879478400275189642343321
  1 settings made for volume
set atom 692 mass 473.31055691530559670354705303907394
  1 settings made for mass
set atom 693 volume 0.52956400654561108787277134979377
  1 settings made for volume
set atom 693 mass 476.60760589104995688103372231125832
  1 settings made for mass
set atom 694 volume 0.52291693123879257054653635350405
  1 settings made for volume
set atom 694 mass 470.62523811491331571232876740396023
  1 settings made for mass
set atom 695 volume 0.52294262180278416884959824528778
  1 settings made for volume
set atom 695 mass 470.64835962250577949816943146288395
  1 settings made for mass
set atom 696 volume 0.52002932355719755364020784327295
  1 settings made for volume
set atom 696 mass 468.02639120147779294711654074490070
  1 settings made for mass
set atom 697 volume 0.51551831996258190571325030759908
  1 settings made for volume
set atom 697 mass 463.96648796632371158921159803867340
  1 settings made for mass
set atom 698 volume 0.52137223738270532802374646053067
  1 settings made for volume
set atom 698 mass 469.23501364443478678367682732641697
  1 settings made for mass
set atom 699 volume 0.52718162736287377256871877762023
  1 settings made for volume
set atom 699 mass 474.46346462658641485177213326096535
  1 settings made for mass
set atom 700 volume 0.52021057323807262662285211263224
  1 settings made for volume
set atom 700 mass 468.18951591426537106599425897002220
  1 settings made for mass
set atom 701 volume 0.52432864711938875768026946389000
  1 settings made for volume
set atom 701 mass 471.89578240744987169819069094955921
  1 settings made for mass
set atom 702 volume 0.51895580267832841503405916228076
  1 settings made for volume
set atom 702 mass 467.06022241049555532299564220011234
  1 settings made for mass
set atom 703 volume 0.52816582498794595323943212861195
  1 settings made for volume
set atom 703 mass 475.34924248915137923177098855376244
  1 settings made for mass
set atom 704 volume 0.52762483296214834904702684070799
  1 settings made for volume
set atom 704 mass 474.86234966593349327013129368424416
  1 settings made for mass
set atom 705 volume 0.52089565198504594878414764025365
  1 settings made for volume
set atom 705 mass 468.80608678654135701435734517872334
  1 settings made for mass
set atom 706 volume 0.52028649575128227411369152832776
  1 settings made for volume
set atom 706 mass 468.25784617615403249146766029298306
  1 settings made for mass
set atom 707 volume 0.52664173371930556033504444712889
  1 settings made for volume
set atom 707 mass 473.97756034737500385745079256594181
  1 settings made for mass
set atom 708 volume 0.52695037768817287737732613095432
  1 settings made for volume
set atom 708 mass 474.25533991935560607089428231120110
  1 settings made for mass
set atom 709 volume 0.52647233492348199934696140189772
  1 settings made for volume
set atom 709 mass 473.82510143113381673174444586038589
  1 settings made for mass
set atom 710 volume 0.52368253160215616492934032066842
  1 settings made for volume
set atom 710 mass 471.31427844194053022874868474900723
  1 settings made for mass
set atom 711 volume 0.52458076133599085277836593377287
  1 settings made for volume
set atom 711 mass 472.12268520239177860275958664715290
  1 settings made for mass
set atom 712 volume 0.52507017721293847145602740056347
  1 settings made for volume
set atom 712 mass 472.56315949164462608678149990737438
  1 settings made for mass
set atom 713 volume 0.52224876378988405178915854776278
  1 settings made for volume
set atom 713 mass 470.02388741089566792652476578950882
  1 settings made for mass
set atom 714 volume 0.52976401276512963267606437511859
  1 settings made for volume
set atom 714 mass 476.78761148861667606979608535766602
  1 settings made for mass
set atom 715 volume 0.52067071078096760494702266441891
  1 settings made for volume
set atom 715 mass 468.60363970287085066956933587789536
  1 settings made for mass
set atom 716 volume 0.52128252657174212192359163964284
  1 settings made for volume
set atom 716 mass 469.15427391456790928714326582849026
  1 settings made for mass
set atom 717 volume 0.52369104328996995967315797315678
  1 settings made for volume
set atom 717 mass 471.32193896097294327773852273821831
  1 settings made for mass
set atom 718 volume 0.52385490940570589302183179825079
  1 settings made for volume
set atom 718 mass 471.46941846513527707429602742195129
  1 settings made for mass
set atom 719 volume 0.52020282923147564968502365445602
  1 settings made for volume
set atom 719 mass 468.18254630832808516061049886047840
  1 settings made for mass
set atom 720 volume 0.51959403276640137026021193378256
  1 settings made for volume
set atom 720 mass 467.63462948976120969746261835098267
  1 settings made for mass
set atom 721 volume 0.52129628240219327839355401010835
  1 settings made for volume
set atom 721 mass 469.16665416197395188646623864769936
  1 settings made for mass
set atom 722 volume 0.52244096813937335177513432427077
  1 settings made for volume
set atom 722 mass 470.19687132543600682765827514231205
  1 settings made for mass
set atom 723 volume 0.52352564330551920601664050991531
  1 settings made for volume
set atom 723 mass 471.17307897496726809549727477133274
  1 settings made for mass
set atom 724 volume 0.51952509386856693396339323953725
  1 settings made for volume
set atom 724 mass 467.57258448171023701434023678302765
  1 settings made for mass
set atom 725 volume 0.52138139472437228238987927397829
  1 settings made for volume
set atom 725 mass 469.24325525193506791765685193240643
  1 settings made for mass
set atom 726 volume 0.52210833385645893933713068690849
  1 settings made for volume
set atom 726 mass 469.89750047081304273888235911726952
  1 settings made for mass
set atom 727 volume 0.52025506446286040596049815576407
  1 settings made for volume
set atom 727 mass 468.22955801657434449225547723472118
  1 settings made for mass
set atom 728 volume 0.52672946811618592821702122819261
  1 settings made for volume
set atom 728 mass 474.05652130456735449115512892603874
  1 settings made for mass
set atom 729 volume 0.52521850460203789445756683562649
  1 settings made for volume
set atom 729 mass 472.69665414183413076898432336747646
  1 settings made for mass
set atom 730 volume 0.52250152168223606974351014287095
  1 settings made for volume
set atom 730 mass 470.25136951401248097681673243641853
  1 settings made for mass
set atom 731 volume 0.52859577309566985192645915958565
  1 settings made for volume
set atom 731 mass 475.73619578610288272102479822933674
  1 settings made for mass
set atom 732 volume 0.52724898764559380293093227010104
  1 settings made for volume
set atom 732 mass 474.52408888103440176564618013799191
  1 settings made for mass
set atom 733 volume 0.52316440045458445506909583855304
  1 settings made for volume
set atom 733 mass 470.84796040912601711170282214879990
  1 settings made for mass
set atom 734 volume 0.52683148145800384742898359036190
  1 settings made for volume
set atom 734 mass 474.14833331220347645285073667764664
  1 settings made for mass
set atom 735 volume 0.52290924289957330106659583179862
  1 settings made for volume
set atom 735 mass 470.61831860961598295034491457045078
  1 settings made for mass
set atom 736 volume 0.52210334575425554337613220923231
  1 settings made for volume
set atom 736 mass 469.89301117882996550179086625576019
  1 settings made for mass
set atom 737 volume 0.52093369467785632931366990305833
  1 settings made for volume
set atom 737 mass 468.84032521007071636631735600531101
  1 settings made for mass
set atom 738 volume 0.52780913036546528438464065402513
  1 settings made for volume
set atom 738 mass 475.02821732891874262350029312074184
  1 settings made for mass
set atom 739 volume 0.52846899389860912954475224978523
  1 settings made for volume
set atom 739 mass 475.62209450874820504395756870508194
  1 settings made for mass
set atom 740 volume 0.52697652237917280704238010002882
  1 settings made for volume
set atom 740 mass 474.27887014125553832855075597763062
  1 settings made for mass
set atom 741 volume 0.52316665101069637078268215191201
  1 settings made for volume
set atom 741 mass 470.84998590962675280024996027350426
  1 settings made for mass
set atom 742 volume 0.52784980111483292830598657019436
  1 settings made for volume
set atom 742 mass 475.06482100334960705367848277091980
  1 settings made for mass
set atom 743 volume 0.52326842088315939083287275934708
  1 settings made for volume
set atom 743 mass 470.94157879484345130549627356231213
  1 settings made for mass
set atom 744 volume 0.52426251194902651064921883516945
  1 settings made for volume
set atom 744 mass 471.83626075412388445329270325601101
  1 settings made for mass
set atom 745 volume 0.52349582914356773688524526733090
  1 settings made for volume
set atom 745 mass 471.14624622921098762162728235125542
  1 settings made for mass
set atom 746 volume 0.52222861877728210533433639284340
  1 settings made for volume
set atom 746 mass 470.00575689955388725138618610799313
  1 settings made for mass
set atom 747 volume 0.52447510543326780751982596484595
  1 settings made for volume
set atom 747 mass 472.02759488994104231096571311354637
  1 settings made for mass
set atom 748 volume 0.52441336449669939678841501518036
  1 settings made for volume
set atom 748 mass 471.97202804702948242265847511589527
  1 settings made for mass
set atom 749 volume 0.52041276098406974437438066161121
  1 settings made for volume
set atom 749 mass 468.37148488566276682831812649965286
  1 settings made for mass
set atom 750 volume 0.52407860400616312901433957449626
  1 settings made for volume
set atom 750 mass 471.67074360554681788926245644688606
  1 settings made for mass
set atom 751 volume 0.53194028328549058937113613865222
  1 settings made for volume
set atom 751 mass 478.74625495694152732539805583655834
  1 settings made for mass
set atom 752 volume 0.52515962936459203991290678459336
  1 settings made for volume
set atom 752 mass 472.64366642813286034652264788746834
  1 settings made for mass
set atom 753 volume 0.52821953982630187596214454970323
  1 settings made for volume
set atom 753 mass 475.39758584367166349693434312939644
  1 settings made for mass
set atom 754 volume 0.52450705510577011470019215266802
  1 settings made for volume
set atom 754 mass 472.05634959519312587872263975441456
  1 settings made for mass
set atom 755 volume 0.52239107933683148754511194056249
  1 settings made for volume
set atom 755 mass 470.15197140314836588004254736006260
  1 settings made for mass
set atom 756 volume 0.52294995243828423792109560963581
  1 settings made for volume
set atom 756 mass 470.65495719445578970407950691878796
  1 settings made for mass
set atom 757 volume 0.51914540733679792605670400007511
  1 settings made for volume
set atom 757 mass 467.23086660311815876411856152117252
  1 settings made for mass
set atom 758 volume 0.52116174169095530466222498944262
  1 settings made for volume
set atom 758 mass 469.04556752185976620239671319723129
  1 settings made for mass
set atom 759 volume 0.52622643169047866873455632230616
  1 settings made for volume
set atom 759 mass 473.60378852143082895054249092936516
  1 settings made for mass
set atom 760 volume 0.52539441667679409597724315972300
  1 settings made for volume
set atom 760 mass 472.85497500911469614948146045207977
  1 settings made for mass
set atom 761 volume 0.52304526807491602546917874860810
  1 settings made for volume
set atom 761 mass 470.74074126742442558679613284766674
  1 settings made for mass
set atom 762 volume 0.53235519352097138146007182513131
  1 settings made for volume
set atom 762 mass 479.11967416887426907123881392180920
  1 settings made for mass
set atom 763 volume 0.52914571429196333163247345510172
  1 settings made for volume
set atom 763 mass 476.23114286276700113376136869192123
  1 settings made for mass
set atom 764 volume 0.52351187451856229237989737157477
  1 settings made for volume
set atom 764 mass 471.16068706670608889908180572092533
  1 settings made for mass
set atom 765 volume 0.52316285869991918655586005115765
  1 settings made for volume
set atom 765 mass 470.84657282992725413350854068994522
  1 settings made for mass
set atom 766 volume 0.52570676722935005820147580379853
  1 settings made for volume
set atom 766 mass 473.13609050641503017686773091554642
  1 settings made for mass
set atom 767 volume 0.52192981829387352643578878996777
  1 settings made for volume
set atom 767 mass 469.73683646448614581458969041705132
  1 settings made for mass
set atom 768 volume 0.52702007293286856626224334831932
  1 settings made for volume
set atom 768 mass 474.31806563958173228456871584057808
  1 settings made for mass
set atom 769 volume 0.52435344252312654500514099709108
  1 settings made for volume
set atom 769 mass 471.91809827081391404135501943528652
  1 settings made for mass
set atom 770 volume 0.52515894929754403097632575736498
  1 settings made for volume
set atom 770 mass 472.64305436778960256560822017490864
  1 settings made for mass
set atom 771 volume 0.51985964284491037457058837389923
  1 settings made for volume
set atom 771 mass 467.87367856041936420297133736312389
  1 settings made for mass
set atom 772 volume 0.52408542474371055952531150978757
  1 settings made for volume
set atom 772 mass 471.67688226933950090824509970843792
  1 settings made for mass
set atom 773 volume 0.52463458063280465903943650118890
  1 settings made for volume
set atom 773 mass 472.17112256952418647415470331907272
  1 settings made for mass
set atom 774 volume 0.51932375204273295565826629172079
  1 settings made for volume
set atom 774 mass 467.39137683845967785600805655121803
  1 settings made for mass
set atom 775 volume 0.51980210085628308913641149047180
  1 settings made for volume
set atom 775 mass 467.82189077065476112693431787192822
  1 settings made for mass
set atom 776 volume 0.52009945429538895211862836731598
  1 settings made for volume
set atom 776 mass 468.08950886585006401219288818538189
  1 settings made for mass
set atom 777 volume 0.52590368996049396965730693409569
  1 settings made for volume
set atom 777 mass 473.31332096444458557016332633793354
  1 settings made for mass
set atom 778 volume 0.52585220847497737839404408077826
  1 settings made for volume
set atom 778 mass 473.26698762747963655783678404986858
  1 settings made for mass
set atom 779 volume 0.51800856418594887209394528326811
  1 settings made for volume
set atom 779 mass 466.20770776735400886536808684468269
  1 settings made for mass
set atom 780 volume 0.52398458095642064247243752106442
  1 settings made for volume
set atom 780 mass 471.58612286077857334021246060729027
  1 settings made for mass
set atom 781 volume 0.51851567865822045799717443514965
  1 settings made for volume
set atom 781 mass 466.66411079239838954890728928148746
  1 settings made for mass
set atom 782 volume 0.52366532077538452405462976457784
  1 settings made for volume
set atom 782 mass 471.29878869784607786641572602093220
  1 settings made for mass
set atom 783 volume 0.52485174142866009017183159812703
  1 settings made for volume
set atom 783 mass 472.36656728579407626966712996363640
  1 settings made for mass
set atom 784 volume 0.51743680067855091220252461425844
  1 settings made for volume
set atom 784 mass 465.69312061069581432093400508165359
  1 settings made for mass
set atom 785 volume 0.52778688694724273933189806484734
  1 settings made for volume
set atom 785 mass 475.00819825251846850733272731304169
  1 settings made for mass
set atom 786 volume 0.52338461258409985088491112037445
  1 settings made for volume
set atom 786 mass 471.04615132568989110950496979057789
  1 settings made for mass
set atom 787 volume 0.51982040196345313809445087827044
  1 settings made for volume
set atom 787 mass 467.83836176710781273868633434176445
  1 settings made for mass
set atom 788 volume 0.53128785597595828971151377118076
  1 settings made for volume
set atom 788 mass 478.15907037836245763173792511224747
  1 settings made for mass
set atom 789 volume 0.52964494061947953174041003876482
  1 settings made for volume
set atom 789 mass 476.68044655753158167499350383877754
  1 settings made for mass
set atom 790 volume 0.52480554938280010723872237576870
  1 settings made for volume
set atom 790 mass 472.32499444452008674488752149045467
  1 settings made for mass
set atom 791 volume 0.52298228161331872243522411736194
  1 settings made for volume
set atom 791 mass 470.68405345198686973162693902850151
  1 settings made for mass
set atom 792 volume 0.52673178375755136393365773983533
  1 settings made for volume
set atom 792 mass 474.05860538179621244125883094966412
  1 settings made for mass
set atom 793 volume 0.52638539561828534552034852822544
  1 settings made for volume
set atom 793 mass 473.74685605645680652742157690227032
  1 settings made for mass
set atom 794 volume 0.51601973463812744746803673479008
  1 settings made for volume
set atom 794 mass 464.41776117431470538576832041144371
  1 settings made for mass
set atom 795 volume 0.52072894282049742020745952686411
  1 settings made for volume
set atom 795 mass 468.65604853844769195347907952964306
  1 settings made for mass
set atom 796 volume 0.51907755268036126494735071901232
  1 settings made for volume
set atom 796 mass 467.16979741232512424176093190908432
  1 settings made for mass
set atom 797 volume 0.52196738861431657419132079667179
  1 settings made for volume
set atom 797 mass 469.77064975288493542393553070724010
  1 settings made for mass
set atom 798 volume 0.52708482816738322362937196885468
  1 settings made for volume
set atom 798 mass 474.37634535064489682554267346858978
  1 settings made for mass
variable diam equal 0.99420499576766230287461212355993

###############################################
# Computes and Property/atom variables
###############################################

variable    velocity atom sqrt(vx*vx+vy*vy+vz*vz)
variable    R        atom (3/4*mass/(${dens}*PI))^(1/3)
variable    R        atom (3/4*mass/(900*PI))^(1/3)
variable    vol      atom mass/${dens}
variable    vol      atom mass/900
variable    area     atom PI*(v_R)^2

###############################################
# Force Calculations - vertical
###############################################

# Buoyancy calculation (need displaced volume):
variable h     atom (z<-v_R)*(2*v_R+z)+(z>=v_R)*(v_R+z)
variable Vwed  atom 1/3*PI*v_h^2*(3*v_R-v_h)

variable V1    atom (z<-v_R)*(z>=-2*v_R)*(v_vol-v_Vwed)
variable V2    atom (z<0)*(z>=-v_R)*(v_Vwed)
variable V3    atom (z<-2*v_R)*v_vol

variable Vdisp atom v_V1+v_V2+v_V3

# Non-Contact Forces (not handled through pair style): Buoyancy, Gravity, Drag
variable Fb    atom ${waterDensity}*${gravity}*v_Vdisp
variable Fb    atom 1017*${gravity}*v_Vdisp
variable Fb    atom 1017*9.81*v_Vdisp
variable Fg    atom ${gravity}*mass
variable Fg    atom 9.81*mass
variable Fdz   atom (z<v_R)*((vz<=0)-(vz>0))*(1/2*${Cdo}*${waterDensity}*v_area*vz^2)
variable Fdz   atom (z<v_R)*((vz<=0)-(vz>0))*(1/2*10*${waterDensity}*v_area*vz^2)
variable Fdz   atom (z<v_R)*((vz<=0)-(vz>0))*(1/2*10*1017*v_area*vz^2)
variable Fztot atom v_Fb-v_Fg+v_Fdz

###############################################
# Force Calculations - horizontal
###############################################

variable Fdx   atom (z<v_R)*((vx<=0)-(vx>0))*(1/2*${Cdo}*${waterDensity}*v_area*vx^2)
variable Fdx   atom (z<v_R)*((vx<=0)-(vx>0))*(1/2*10*${waterDensity}*v_area*vx^2)
variable Fdx   atom (z<v_R)*((vx<=0)-(vx>0))*(1/2*10*1017*v_area*vx^2)
variable Fxtot atom v_Fdx

variable Fdy   atom (z<v_R)*((vy<=0)-(vy>0))*(1/2*${Cdo}*${waterDensity}*v_area*vy^2)
variable Fdy   atom (z<v_R)*((vy<=0)-(vy>0))*(1/2*10*${waterDensity}*v_area*vy^2)
variable Fdy   atom (z<v_R)*((vy<=0)-(vy>0))*(1/2*10*1017*v_area*vy^2)
variable Fytot atom v_Fdx

###############################################
# Fixes and pair styles
###############################################

comm_style    tiled
timestep      0.0005

pair_style    peri/pmb
pair_coeff    * * ${c} ${hor} ${s00} ${alpha}
pair_coeff    * * 67500 ${hor} ${s00} ${alpha}
pair_coeff    * * 67500 1 ${s00} ${alpha}
pair_coeff    * * 67500 1 0.5 ${alpha}
pair_coeff    * * 67500 1 0.5 0.9

fix           1 all    nve
fix           2 all    addforce v_Fxtot v_Fytot v_Fztot
fix           3 all    wall/reflect xhi EDGE xlo EDGE

###############################################
# Run settings
###############################################

variable      dumpfreq equal 10
variable      logfreq equal 100

variable      skin equal ${diam}
variable      skin equal 0.994204995767662
neighbor      ${skin} bin
neighbor      0.994204995767662 bin

comm_modify	  vel yes cutoff ${diam}
comm_modify	  vel yes cutoff 0.994204995767662

thermo_style	custom step cpu atoms ke lx
thermo_modify	flush yes lost warn
thermo          ${logfreq}
thermo          100

run  0
Neighbor list info ...
  update every 1 steps, delay 10 steps, check yes
  max neighbors/atom: 2000, page size: 100000
  master list distance cutoff = 1.9942
  ghost atom cutoff = 1.9942
  binsize = 0.997102, bins = 31 31 41
  2 neighbor lists, perpetual/occasional/extra = 1 1 0
  (1) pair peri/pmb, perpetual
      attributes: half, newton on
      pair build: half/bin/atomonly/newton
      stencil: half/bin/3d/newton
      bin: standard
  (2) fix PERI_NEIGH, occasional
      attributes: full, newton on
      pair build: full/bin/atomonly
      stencil: full/bin/3d
      bin: standard
Peridynamic bonds:
  total # of bonds = 3578
  bonds/atom = 4.48371
Per MPI rank memory allocation (min/avg/max) = 6.637 | 6.637 | 6.637 Mbytes
Step CPU Atoms KinEng Lx 
       0            0      798            0           30 
Loop time of 2.86102e-06 on 1 procs for 0 steps with 798 atoms

104.9% CPU use with 1 MPI tasks x no OpenMP threads

MPI task timing breakdown:
Section |  min time  |  avg time  |  max time  |%varavg| %total
---------------------------------------------------------------
Pair    | 0          | 0          | 0          |   0.0 |  0.00
Neigh   | 0          | 0          | 0          |   0.0 |  0.00
Comm    | 0          | 0          | 0          |   0.0 |  0.00
Output  | 0          | 0          | 0          |   0.0 |  0.00
Modify  | 0          | 0          | 0          |   0.0 |  0.00
Other   |            | 2.861e-06  |            |       |100.00

Nlocal:    798 ave 798 max 798 min
Histogram: 1 0 0 0 0 0 0 0 0 0
Nghost:    0 ave 0 max 0 min
Histogram: 1 0 0 0 0 0 0 0 0 0
Neighs:    5335 ave 5335 max 5335 min
Histogram: 1 0 0 0 0 0 0 0 0 0
FullNghs:  10670 ave 10670 max 10670 min
Histogram: 1 0 0 0 0 0 0 0 0 0

Total # of neighbors = 10670
Ave neighs/atom = 13.3709
Neighbor list builds = 0
Dangerous builds = 0

dump 1        all custom ${dumpfreq} ../data/DUMP/slab_vel.dump id type x y z v_R
dump 1        all custom 10 ../data/DUMP/slab_vel.dump id type x y z v_R

run	 1000
Neighbor list info ...
  update every 1 steps, delay 10 steps, check yes
  max neighbors/atom: 2000, page size: 100000
  master list distance cutoff = 1.9942
  ghost atom cutoff = 1.9942
  binsize = 0.997102, bins = 31 31 41
  1 neighbor lists, perpetual/occasional/extra = 1 0 0
  (1) pair peri/pmb, perpetual
      attributes: half, newton on
      pair build: half/bin/atomonly/newton
      stencil: half/bin/3d/newton
      bin: standard
Per MPI rank memory allocation (min/avg/max) = 7.414 | 7.414 | 7.414 Mbytes
Step CPU Atoms KinEng Lx 
       0            0      798            0           30 
     100   0.26024699      798    750.98679           30 
     200   0.51463795      798     2850.521           30 
     300   0.78948784      798    5896.4525           30 
     400    1.0613079      798    9378.4938           30 
     500    1.3200159      798    12822.765           30 
     600     1.577518      798    15880.535           30 
     700    1.8454828      798    18350.026           30 
     800    2.1157019      798    20153.691           30 
     900    2.3803499      798    21299.357           30 
    1000    2.6461408      798    21843.947           30 
Loop time of 2.64618 on 1 procs for 1000 steps with 798 atoms

99.7% CPU use with 1 MPI tasks x no OpenMP threads

MPI task timing breakdown:
Section |  min time  |  avg time  |  max time  |%varavg| %total
---------------------------------------------------------------
Pair    | 0.14643    | 0.14643    | 0.14643    |   0.0 |  5.53
Neigh   | 0          | 0          | 0          |   0.0 |  0.00
Comm    | 0.00032663 | 0.00032663 | 0.00032663 |   0.0 |  0.01
Output  | 0.094452   | 0.094452   | 0.094452   |   0.0 |  3.57
Modify  | 2.4015     | 2.4015     | 2.4015     |   0.0 | 90.75
Other   |            | 0.003475   |            |       |  0.13

Nlocal:    798 ave 798 max 798 min
Histogram: 1 0 0 0 0 0 0 0 0 0
Nghost:    0 ave 0 max 0 min
Histogram: 1 0 0 0 0 0 0 0 0 0
Neighs:    5335 ave 5335 max 5335 min
Histogram: 1 0 0 0 0 0 0 0 0 0

Total # of neighbors = 5335
Ave neighs/atom = 6.68546
Neighbor list builds = 0
Dangerous builds = 0

include velocity.include
variable vo equal 1.50000000000000000000000000000000
velocity 1 set ${vo} NULL NULL
velocity 1 set 1.5 NULL NULL
velocity 2 set -${vo} NULL NULL
velocity 2 set -1.5 NULL NULL

run  30000
Per MPI rank memory allocation (min/avg/max) = 7.414 | 7.414 | 7.414 Mbytes
Step CPU Atoms KinEng Lx 
    1000            0      798    444857.68           30 
    1100   0.27362013      798    243650.67           30 
    1200   0.55107903      798    236082.01           30 
    1300   0.82771993      798    252996.72           30 
    1400    1.0843811      798     271496.9           30 
    1500      1.34284      798    287626.34           30 
    1600     1.620831      798    301005.32           30 
    1700    1.8954949      798    311988.28           30 
    1800     2.148762      798    321026.31           30 
    1900     2.401973      798    328520.72           30 
    2000    2.6519761      798    334799.29           30 
    2100     2.908771      798    340123.01           30 
    2200    3.1611559      798    344698.47           30 
    2300    3.4217479      798    348689.43           30 
    2400     3.688138      798    352226.05           30 
    2500    3.9533551      798    355412.02           30 
    2600     4.220046      798     358329.1           30 
    2700     4.485949      798    361033.05           30 
    2800     4.753365      798       363552           30 
    2900    5.0178301      798    365896.38           30 
    3000    5.2700701      798    368070.16           30 
    3100     5.523191      798    370079.47           30 
    3200    5.7754371      798    371936.87           30 
    3300    6.0312791      798    373661.84           30 
    3400     6.290777      798    375278.86           30 
    3500    6.5518131      798     376768.5           30 
    3600     6.804795      798     378156.3           30 
    3700    7.0610211      798    379496.63           30 
    3800     7.317457      798    380814.25           30 
    3900    7.5720279      798    382122.41           30 
    4000     7.824398      798     383416.2           30 
    4100    8.0784171      798    384293.31           30 
    4200    8.3322871      798    384745.55           30 
    4300    8.5887289      798    385215.93           30 
    4400    8.8444519      798    385895.95           30 
    4500    9.0997851      798    386655.61           30 
    4600      9.35096      798    387370.18           30 
    4700     9.605978      798     388015.7           30 
    4800    9.8607631      798     388613.1           30 
    4900    10.114492      798    389161.18           30 
    5000    10.367546      798    389642.88           30 
    5100    10.621274      798    390062.29           30 
    5200    10.874945      798    390453.37           30 
    5300    11.127853      798    390817.99           30 
    5400     11.38243      798    391138.51           30 
    5500    11.636204      798    391415.76           30 
    5600    11.888423      798    391432.48           30 
    5700    12.147138      798    391076.06           30 
    5800    12.401975      798    390916.33           30 
    5900    12.655637      798    390981.45           30 
    6000     12.92175      798    391118.59           30 
    6100    13.177777      798    391238.64           30 
    6200    13.449507      798    391490.05           30 
    6300    13.731248      798    391710.19           30 
    6400    13.997776      798    392009.96           30 
    6500    14.270802      798    392421.22           30 
    6600    14.548399      798    392884.46           30 
    6700    14.814558      798    393350.61           30 
    6800    15.082165      798    393782.99           30 
    6900    15.336041      798    394201.73           30 
    7000    15.590565      798    394579.25           30 
    7100      15.8432      798    394903.19           30 
    7200    16.095705      798    395120.34           30 
    7300    16.348377      798    395285.29           30 
    7400     16.60262      798    395439.97           30 
    7500    16.854996      798    395571.73           30 
    7600    17.110038      798    395793.29           30 
    7700    17.364497      798    395917.92           30 
    7800    17.618477      798    396108.69           30 
    7900      17.8719      798    396257.27           30 
    8000    18.132553      798    396371.35           30 
    8100    18.386913      798    396557.61           30 
    8200    18.646138      798     396748.7           30 
    8300    18.901247      798    396778.42           30 
    8400    19.155465      798    396957.33           30 
    8500    19.408948      798     396983.1           30 
    8600    19.655656      761    378254.98           30 
    8700    19.899996      761    378165.13           30 
    8800    20.147234      761     378067.2           30 
    8900    20.406665      761    378095.73           30 
    9000    20.654916      761    378074.14           30 
    9100    20.896795      761    378094.38           30 
    9200    21.141681      760    377676.35           30 
    9300    21.382823      760    377618.47           30 
    9400    21.630291      760    377522.44           30 
    9500    21.873023      760    377298.61           30 
    9600    22.117582      760    377216.48           30 
    9700    22.360591      760    377244.36           30 
    9800    22.598391      728    361186.19           30 
    9900    22.830856      728    361169.35           30 
   10000    23.065599      728    361199.46           30 
   10100    23.297763      728    361123.52           30 
   10200    23.541433      728    361054.36           30 
   10300    23.786992      728    360992.11           30 
   10400    24.032187      722    357878.13           30 
   10500    24.279419      722    357858.11           30 
   10600    24.525883      722    357849.62           30 
   10700    24.769829      722    357839.93           30 
   10800    25.014409      722    357819.16           30 
   10900    25.246003      722    357850.45           30 
   11000    25.476809      710    351600.56           30 
   11100     25.70521      710    351682.53           30 
   11200    25.938485      710    351712.27           30 
   11300    26.166651      710    351779.67           30 
   11400    26.395637      710    351800.14           30 
   11500    26.623523      710    351836.84           30 
   11600    26.850461      710       351873           30 
   11700    27.078667      684    338331.66           30 
   11800    27.298251      684     338321.6           30 
   11900    27.518544      684    338320.87           30 
   12000    27.737607      684    338312.88           30 
   12100    27.957907      684    338281.74           30 
   12200    28.181986      684     338284.3           30 
   12300    28.402903      682    337167.57           30 
   12400    28.632305      682    337175.75           30 
   12500     28.85266      682    337193.16           30 
   12600    29.073626      682    337228.86           30 
   12700    29.291184      682    337294.26           30 
   12800    29.512917      682    337400.94           30 
   12900    29.727184      648    320450.74           30 
   13000     29.94136      648    320479.68           30 
   13100    30.153797      648    320489.89           30 
   13200    30.364832      648    320459.21           30 
   13300    30.575084      648     320473.6           30 
   13400    30.784716      648    320478.46           30 
   13500    30.995403      646    319624.17           30 
   13600    31.205436      646    319674.79           30 
   13700    31.413818      646    319654.09           30 
   13800    31.623516      646    319649.14           30 
   13900    31.833624      646    319640.64           30 
   14000    32.042527      646    319666.37           30 
   14100    32.246399      613    303371.48           30 
   14200    32.447003      613    303393.05           30 
   14300    32.646122      613    303424.93           30 
   14400     32.84735      613    303434.94           30 
   14500    33.053698      613    303433.13           30 
   14600    33.255848      613    303445.62           30 
   14700    33.464052      608    301092.64           30 
   14800    33.673032      608    301097.53           30 
   14900    33.880104      608    301074.74           30 
   15000    34.089041      608    301069.93           30 
   15100    34.297622      608    301039.99           30 
   15200    34.508059      608    301013.76           30 
   15300    34.716077      586     289659.4           30 
   15400    34.913332      586    289688.15           30 
   15500    35.106848      586    289706.21           30 
   15600    35.298136      586     289738.2           30 
   15700    35.491485      586    289748.32           30 
   15800     35.68287      586    289751.95           30 
   15900     35.87353      586    289743.35           30 
   16000    36.062721      571    282606.34           30 
   16100    36.255957      571    282598.56           30 
   16200    36.443235      571    282603.29           30 
   16300    36.630974      571    282612.75           30 
   16400     36.81777      571    282619.56           30 
   16500    37.006121      571    282616.65           30 
   16600     37.19061      553    273700.41           30 
   16700    37.378924      553    273693.31           30 
   16800    37.562964      553    273712.95           30 
   16900    37.743821      553    273728.41           30 
   17000    37.924716      553     273739.4           30 
   17100    38.106031      553    273757.59           30 
   17200    38.286411      534    263874.36           30 
   17300     38.46162      534     263856.1           30 
   17400    38.638025      534    263850.91           30 
   17500    38.819465      534    263845.09           30 
   17600    38.997102      534    263855.21           30 
   17700    39.173093      534    263847.43           30 
   17800    39.348009      534     263841.7           30 
   17900    39.521533      522    257546.28           30 
   18000    39.694054      522    257578.24           30 
   18100    39.867258      522     257616.9           30 
   18200    40.040837      522     257637.3           30 
   18300    40.212412      522    257671.99           30 
   18400     40.38484      522    257702.47           30 
   18500     40.55266      498    245209.09           30 
   18600    40.718904      498    245231.21           30 
   18700    40.890815      498     245235.6           30 
   18800    41.057628      498    245249.55           30 
   18900    41.223521      498    245250.25           30 
   19000    41.388988      498    245250.39           30 
   19100    41.558042      486    238956.73           30 
   19200    41.719072      486    238983.98           30 
   19300    41.881063      486    239006.97           30 
   19400    42.045515      486    239020.24           30 
   19500    42.207981      486    239019.98           30 
   19600    42.369736      486    239031.31           30 
   19700    42.535504      462    226428.49           30 
   19800    42.693884      462    226436.22           30 
   19900    42.849149      462    226449.22           30 
   20000    43.003798      462    226452.48           30 
   20100    43.159639      462    226457.47           30 
   20200    43.313114      462    226458.32           30 
   20300    43.469555      462    226455.77           30 
   20400    43.624702      456    223611.48           30 
   20500    43.782413      456    223628.58           30 
   20600    43.936651      456    223637.48           30 
   20700    44.090396      456     223642.9           30 
   20800    44.243866      456    223650.97           30 
   20900     44.39717      456    223661.95           30 
   21000    44.546895      427    208983.62           30 
   21100    44.691733      427    208977.16           30 
   21200    44.835565      427    208978.18           30 
   21300    44.981366      427    208997.67           30 
   21400    45.126678      427    209003.65           30 
   21500    45.270139      427    209029.28           30 
   21600     45.41541      419    205353.06           30 
   21700    45.557581      419    205360.72           30 
   21800    45.699475      419    205367.67           30 
   21900    45.840758      419    205376.72           30 
   22000    45.983941      419    205394.82           30 
   22100    46.127251      419    205403.08           30 
   22200    46.270165      419    205410.42           30 
   22300    46.408013      395    193266.47           30 
   22400    46.542112      395     193282.8           30 
   22500    46.678187      395    193298.59           30 
   22600    46.812877      395    193311.14           30 
   22700    46.947373      395    193331.62           30 
   22800    47.083072      395    193342.08           30 
   22900    47.217327      383    188033.37           30 
   23000    47.348044      383    188044.08           30 
   23100    47.478748      383    188053.12           30 
   23200    47.610354      383    188071.72           30 
   23300    47.741796      383    188079.35           30 
   23400    47.875131      383    188087.96           30 
   23500     48.00646      359    175884.18           30 
   23600    48.134418      359    175884.31           30 
   23700    48.259474      359    175887.35           30 
   23800    48.383678      359    175888.57           30 
   23900    48.507494      359    175895.45           30 
   24000    48.631647      359    175902.53           30 
   24100    48.755377      359    175914.31           30 
   24200    48.876528      348    170674.98           30 
   24300    48.997708      348    170684.62           30 
   24400    49.119104      348    170699.38           30 
   24500    49.239362      348    170705.26           30 
   24600    49.360198      348    170709.88           30 
   24700    49.480882      348    170709.77           30 
   24800    49.596711      325     159184.3           30 
   24900     49.71149      325     159205.2           30 
   25000    49.825494      325    159229.91           30 
   25100    49.939843      325    159246.67           30 
   25200    50.054276      325     159261.7           30 
   25300    50.174478      325    159278.66           30 
   25400    50.286253      311    152262.11           30 
   25500    50.405706      311    152272.34           30 
   25600    50.523678      311    152290.94           30 
   25700    50.634268      311     152309.2           30 
   25800    50.743548      311    152333.58           30 
   25900    50.853455      311    152350.15           30 
   26000    50.963446      294    143694.25           30 
   26100    51.068508      294    143711.41           30 
   26200    51.173545      294    143737.95           30 
   26300    51.278728      294    143760.25           30 
   26400    51.384561      294    143781.71           30 
   26500    51.489675      294    143797.65           30 
   26600    51.598422      294    143803.31           30 
   26700    51.698985      278    135480.49           30 
   26800    51.798517      278    135493.14           30 
   26900    51.899403      278    135509.16           30 
   27000    51.999604      278    135517.41           30 
   27100    52.100425      278    135532.09           30 
   27200    52.203424      278    135546.13           30 
   27300    52.299773      262    127493.09           30 
   27400    52.394976      262    127512.85           30 
   27500    52.490439      262    127538.54           30 
   27600    52.585132      262    127559.72           30 
   27700    52.682657      262    127580.07           30 
   27800    52.778122      262    127596.04           30 
   27900    52.871326      245    118667.05           30 
   28000    52.961471      245    118687.73           30 
   28100    53.051958      245    118703.14           30 
   28200    53.142924      245    118724.26           30 
   28300    53.235602      245    118739.61           30 
   28400    53.330574      245    118760.92           30 
   28500    53.423193      228     110590.8           30 
   28600    53.512008      228    110608.12           30 
   28700    53.600884      228    110623.86           30 
   28800    53.690493      228    110645.32           30 
   28900     53.77952      228     110660.3           30 
   29000    53.868553      228     110665.9           30 
   29100    53.957854      207    100134.54           30 
   29200     54.04078      207    100140.45           30 
   29300    54.123885      207    100151.65           30 
   29400    54.206679      207    100163.98           30 
   29500    54.289227      207     100175.9           30 
   29600    54.371984      207    100188.17           30 
   29700    54.454528      207    100193.89           30 
   29800    54.534965      195    94322.123           30 
   29900    54.613881      195    94341.288           30 
   30000    54.693291      195    94363.792           30 
   30100    54.771839      195    94379.408           30 
   30200    54.850704      195    94396.115           30 
   30300    54.929444      195    94408.486           30 
   30400    55.002753      171    82425.064           30 
   30500    55.071426      171    82428.132           30 
   30600    55.141164      171    82431.715           30 
   30700    55.209657      171    82437.104           30 
   30800     55.27978      171     82439.43           30 
   30900    55.347918      171    82439.823           30 
   31000    55.415809      159    76610.932           30 
Loop time of 55.4158 on 1 procs for 30000 steps with 159 atoms

99.6% CPU use with 1 MPI tasks x no OpenMP threads

MPI task timing breakdown:
Section |  min time  |  avg time  |  max time  |%varavg| %total
---------------------------------------------------------------
Pair    | 3.0561     | 3.0561     | 3.0561     |   0.0 |  5.51
Neigh   | 0.0057375  | 0.0057375  | 0.0057375  |   0.0 |  0.01
Comm    | 0.011312   | 0.011312   | 0.011312   |   0.0 |  0.02
Output  | 2.0634     | 2.0634     | 2.0634     |   0.0 |  3.72
Modify  | 50.213     | 50.213     | 50.213     |   0.0 | 90.61
Other   |            | 0.06621    |            |       |  0.12

Nlocal:    159 ave 159 max 159 min
Histogram: 1 0 0 0 0 0 0 0 0 0
Nghost:    0 ave 0 max 0 min
Histogram: 1 0 0 0 0 0 0 0 0 0
Neighs:    954 ave 954 max 954 min
Histogram: 1 0 0 0 0 0 0 0 0 0

Total # of neighbors = 954
Ave neighs/atom = 6
Neighbor list builds = 47
Dangerous builds = 0

Please see the log.cite file for references relevant to this simulation

Total wall time: 0:00:58
